SYSTEM = TEST_AIMD

ISMEAR = 0
SIGMA = 0.1

IBRION = 0
MDALGO = 2
ISIF = 2
SMASS = 2
ALGO = Very Fast
LREAL = Auto
ENCUT = 400
PREC = normal
LWAVE = .F.
LCHARG = .F.
NWRITE = 0

ISYM = 0

TEBEG = 300
TEEND = 300

NELMIN = 6
NSW = 10000
EDIFF = 1E-4

NCORE = 8
POTIM = 2
NBLOCK = 1
KBLOCK = 50

