Layer
1.0
       17.1464996338         0.0000000000         0.0000000000
       -8.5015810907        14.8077168605         0.0000000000
        0.0000000000         0.0000000000        29.2078990936
   Ag   Pd    F    O
   97   72   25    2
Direct
     0.335630000         0.342909992         0.026240001
     0.224910006         0.115500003         0.105410002
     0.108620003         0.221469998         0.187450007
     0.996869981         0.994910002         0.263000011
     0.336050004         0.175730005         0.024280000
     0.224179998         0.282279998         0.108499996
     0.109430000         0.054579999         0.182960004
     0.995970011         0.156690001         0.268559992
     0.667540014         0.340979993         0.027190000
     0.556540012         0.115879998         0.112549998
     0.442299992         0.221049994         0.191860005
     0.327879995         0.995190024         0.274890006
     0.667039990         0.174689993         0.027030000
     0.556999981         0.282040000         0.111380003
     0.442200005         0.054019999         0.193709999
     0.326530010         0.158920005         0.272729993
     0.000959992         0.342229992         0.027670000
     0.888639987         0.115350001         0.106140003
     0.774689972         0.220210001         0.191159993
     0.663119972         0.994019985         0.273310006
     0.001230001         0.176190004         0.023490001
     0.888729990         0.281769991         0.110079996
     0.772769988         0.053100001         0.187279999
     0.666119993         0.161990002         0.274800003
     0.334149987         0.674870014         0.032820001
     0.223100007         0.448549986         0.113430001
     0.107900001         0.553550005         0.196410000
     0.994080007         0.321980000         0.275590003
     0.334459990         0.508769989         0.030230001
     0.222819999         0.615040004         0.115999997
     0.108080000         0.386909992         0.193890005
     0.994639993         0.492249995         0.278880000
     0.666800022         0.672909975         0.023499999
     0.557370007         0.448080003         0.109930001
     0.442310005         0.553929985         0.195390001
     0.329189986         0.324460000         0.273259997
     0.667280018         0.506380022         0.024470000
     0.556670010         0.614709973         0.110859998
     0.442979991         0.387679994         0.191410005
     0.329180002         0.490969986         0.279610008
     0.001080036         0.673740029         0.024909999
     0.888620019         0.447809994         0.111560002
     0.776080012         0.554539979         0.190669999
     0.662620008         0.326689988         0.281699985
     0.001119971         0.508249998         0.029039999
     0.889450014         0.614260018         0.108470000
     0.774209976         0.387100011         0.193550006
     0.667649984         0.498369992         0.274670005
     0.335889995         0.008350015         0.026130000
     0.223049998         0.781409979         0.113150001
     0.108870000         0.886759996         0.186130002
     0.995039999         0.662289977         0.274690002
     0.334699988         0.841419995         0.030520000
     0.224280000         0.948360026         0.107699998
     0.108479999         0.720399976         0.193360001
     0.996200025         0.831110001         0.267509997
     0.666350007         0.007670045         0.025510000
     0.556020021         0.781520009         0.112109996
     0.441570014         0.887220025         0.198479995
     0.327699989         0.658940017         0.285180002
     0.666410029         0.840380013         0.023820000
     0.555840015         0.948599994         0.112999998
     0.441289991         0.720040023         0.198740005
     0.327910006         0.829180002         0.282700002
     0.001870036         0.008849978         0.020690000
     0.889869988         0.780920029         0.104170002
     0.773339987         0.886059999         0.184780002
     0.665769994         0.663079977         0.270379990
     0.001389980         0.840369999         0.020889999
     0.889429986         0.948270023         0.103380002
     0.775539994         0.720489979         0.186440006
     0.665740013         0.829240024         0.273939997
     0.988770008         0.008090000         0.359039992
     0.211669996         0.980790019         0.351520002
     0.394959986         0.976960003         0.360560000
     0.572629988         0.966159999         0.358069986
     0.766499996         0.993920028         0.350349993
     0.037140001         0.238240004         0.354360014
     0.211559996         0.231700003         0.350809991
     0.438120008         0.221949995         0.353150010
     0.578840017         0.160300002         0.356909990
     0.796750009         0.216710001         0.352299988
     0.006150000         0.402929991         0.361790001
     0.202160001         0.415520012         0.358280003
     0.410789996         0.402990013         0.358500004
     0.594760001         0.413390011         0.358229995
     0.823769987         0.405550003         0.356460005
     0.995639980         0.586350024         0.361600012
     0.193499997         0.595139980         0.359919995
     0.395669997         0.594669998         0.362150013
     0.572619975         0.598559976         0.353980005
     0.806970000         0.577549994         0.355089992
     0.987950027         0.760410011         0.353700012
     0.197779998         0.779609978         0.357320011
     0.395000011         0.790880024         0.365220010
     0.572860003         0.785090029         0.357659996
     0.778050005         0.736819983         0.349700004
     0.168329999         0.175490007         0.025669999
     0.055500001         0.282090008         0.108560003
     0.277069986         0.054680001         0.188740000
     0.161160007         0.158219993         0.265060008
     0.167520002         0.341870010         0.029850001
     0.056230001         0.115620002         0.103770003
     0.276780009         0.221090004         0.188529998
     0.161449999         0.995660007         0.264070004
     0.501330018         0.174679995         0.030069999
     0.390399992         0.281819999         0.108309999
     0.607739985         0.054189999         0.193820000
     0.495380014         0.162680000         0.274060011
     0.501129985         0.340990007         0.029080000
     0.390480012         0.115309998         0.108999997
     0.609319985         0.221870005         0.194890007
     0.497709990         0.998870015         0.279190004
     0.833029985         0.174720004         0.027690001
     0.721870005         0.281720012         0.110550001
     0.942089975         0.054790001         0.184210002
     0.830060005         0.155949995         0.270190001
     0.833260000         0.340880007         0.030160001
     0.721170008         0.115070000         0.108180001
     0.941470027         0.220599994         0.189809993
     0.831449986         0.993979990         0.263170004
     0.167099997         0.507780015         0.033530001
     0.055420000         0.614130020         0.111790001
     0.275860012         0.387309998         0.193299994
     0.160089999         0.490260005         0.278910011
     0.167199999         0.674059987         0.032910001
     0.055339999         0.448220015         0.112310000
     0.275130004         0.553520024         0.198430002
     0.161430001         0.322629988         0.273990005
     0.500569999         0.507669985         0.030090000
     0.389310002         0.615059972         0.114759997
     0.610010028         0.387600005         0.193700001
     0.498180002         0.493570000         0.274509996
     0.499940008         0.674170017         0.031989999
     0.389829993         0.448559999         0.111060001
     0.609579980         0.553629994         0.190899998
     0.497839987         0.329659998         0.273779988
     0.833639979         0.506910026         0.028899999
     0.722599983         0.614059985         0.105930001
     0.942139983         0.387439996         0.193470001
     0.831279993         0.495579988         0.274349988
     0.833660007         0.672850013         0.025130000
     0.722429991         0.447860003         0.109460004
     0.942160010         0.553719997         0.193159997
     0.830980003         0.326420009         0.273030013
     0.167830005         0.840340018         0.028080000
     0.056559999         0.947749972         0.102440000
     0.275460005         0.720520020         0.199249998
     0.160200000         0.830510020         0.273669988
     0.168489993         0.007419944         0.024620000
     0.055960000         0.780439973         0.106320001
     0.275599986         0.887109995         0.194120005
     0.159999996         0.661549985         0.278490007
     0.499850005         0.841050029         0.033030000
     0.389580011         0.948149979         0.112620004
     0.608080029         0.720430017         0.191990003
     0.496800005         0.828459978         0.280849993
     0.500660002         0.008190036         0.032070000
     0.389160007         0.781629980         0.115929998
     0.607219994         0.886259973         0.193149999
     0.498829991         0.660969973         0.279370010
     0.833469987         0.840210021         0.023610000
     0.720990002         0.947799981         0.105599999
     0.942759991         0.720700026         0.188290000
     0.831939995         0.830259979         0.264939994
     0.833159983         0.008030057         0.024700001
     0.721800029         0.780560017         0.104470000
     0.942539990         0.887560010         0.183500007
     0.833169997         0.665730000         0.270969987
     0.077979997         0.139960006         0.389939994
     0.273640007         0.137520000         0.358029991
     0.446749985         0.115790002         0.397269994
     0.668990016         0.109439999         0.387939990
     0.883310020         0.139300004         0.359340012
     0.075960003         0.346049994         0.408419997
     0.276769996         0.352640003         0.397780001
     0.470829993         0.334360003         0.405589998
     0.664189994         0.322369993         0.366200000
     0.871810019         0.328330010         0.404199988
     0.067029998         0.531379998         0.405869991
     0.266669989         0.539569974         0.404210001
     0.460709989         0.527980030         0.406430006
     0.673229992         0.558839977         0.385439992
     0.862129986         0.520240009         0.408199996
     0.069679998         0.724030018         0.401349992
     0.263419986         0.722620010         0.405200005
     0.455709994         0.721490026         0.408890009
     0.664629996         0.738640010         0.389149994
     0.868449986         0.721490026         0.400169998
     0.054770000         0.918929994         0.353960007
     0.259350002         0.913540006         0.400790006
     0.459199995         0.922060013         0.411170006
     0.656799972         0.917479992         0.401039988
     0.844280005         0.903850019         0.344209999
     0.384429991         0.437180012         0.453079998
     0.462709993         0.437900007         0.443019986
