CONTCAR2                                
   1.00000000000000     
    17.1432991028000004    0.0000000000000000    0.0000000000000000
    -8.5182616025000009   14.7953589042000004    0.0000000000000000
     0.0000000000000000    0.0000000000000000   29.3026008605999984
   Ag   Pd   O 
   108    72     2
Direct
  0.1135913095391210  0.2359395065490207  0.0281500674216339
  0.3399829729482086  0.3347537881808666  0.1044704572987400
  0.2237273073814911  0.1065619857277938  0.1903412598577175
  0.1108619609752323  0.2254012231691640  0.2686682113935147
  0.9889115621714023  0.9955449944819462  0.3614730219250957
  0.1089501608619849  0.0657785027859331  0.0324145520978470
  0.3332738150968261  0.1608815310270970  0.1084754559893584
  0.2254048265821084  0.2688615140276852  0.1947590834132898
  0.0999841575518878  0.0473234301276650  0.2774954501622022
  0.9875992421716242  0.1558878283484940  0.3533073989419943
  0.1615384544339037  0.1642971683919334  0.3569100802875527
  0.1559184970146164  0.0000769273774644  0.3543545570798894
  0.4468867313470408  0.2173123435505078  0.0265646197342334
  0.6730705905747618  0.3343494003872552  0.1145983054352797
  0.5526849157821969  0.1104753092079917  0.1940010905898129
  0.4332891816373895  0.2170858705330823  0.2742593891264538
  0.3158136812808121  0.9926199925903101  0.3566139667931456
  0.4398554868138103  0.0520164850474689  0.0227556742423190
  0.6608822640668633  0.1675047243292347  0.1111283935843206
  0.5621244683929569  0.2760170719549104  0.1934223328112026
  0.4353745571272681  0.0558646964882950  0.2736785646070711
  0.3288002743262239  0.1590956471107365  0.3655527740676050
  0.4979643277939927  0.1682169462579246  0.3538302749143606
  0.4939440423289747  0.9980876385537100  0.3610625176454039
  0.7801933216811302  0.2231909720255105  0.0339427693535889
  0.9997220489056314  0.3388151405376095  0.1151968511283118
  0.8804036120448868  0.1061386136230177  0.1967341862633071
  0.7796490875125477  0.2246766154530221  0.2734409117260450
  0.6684872051266691  1.0018674830802177  0.3531382354704403
  0.7800104313681098  0.0595767614254095  0.0324873799208911
  1.0073933915488889  0.1692366691634271  0.1156631027285689
  0.9012591357500029  0.2891584364118002  0.1928485451934512
  0.7788281759116301  0.0588129347716109  0.2769171456672241
  0.6657896005037113  0.1582991813232899  0.3638017013249412
  0.8365802422818760  0.1704055781432473  0.3634613644133663
  0.8183869299986486  0.9921804578593191  0.3602347201931778
  0.1129411451493155  0.5574334112486482  0.0315577612827104
  0.3347426795790636  0.6728173664166885  0.1159397357412301
  0.2215811214971095  0.4414999177026686  0.1922211198766982
  0.0985483331570864  0.5556262515410476  0.2704977784381079
 -0.0025538662724315  0.3275320924234539  0.3565336774422177
  0.1203554267551517  0.4020677893780152  0.0296856560917319
  0.3436737730643502  0.5089294362074148  0.1119742024151986
  0.2234189570780448  0.6098779501369864  0.1964550632276528
  0.1016719016091619  0.3858656304651074  0.2720131363593657
  0.9969094890416298  0.4930742747966672  0.3549320229547240
  0.1566208465425409  0.4949225560807286  0.3583386796688969
  0.1555491919906225  0.3248051007406336  0.3494571056528442
  0.4473661509227941  0.5576245526689709  0.0275150206881698
  0.6673752395536237  0.6730465146252268  0.1112131431616358
  0.5581831473055020  0.4382001946896538  0.1929751265051363
  0.4404031204638072  0.5605912658490800  0.2704868398617993
  0.3327111801882883  0.3404890633915536  0.3581311269003573
  0.4415034835760222  0.3830740313885694  0.0257310772050957
  0.6720834980389795  0.5028177728104853  0.1131154123315536
  0.5488596779612457  0.6053402765124175  0.1880405073166727
  0.4446871758973829  0.3849659552726021  0.2702844396314403
  0.3241000256087911  0.5025057146480135  0.3539001291522891
  0.4909597970273192  0.5033218985866346  0.3519461170675343
  0.5043772407121567  0.3417736703930148  0.3514371927235281
  0.7701182797109326  0.5474682007209704  0.0222505965476066
  0.9935881442366854  0.6697932610609265  0.1118889859677355
  0.8972377389782630  0.4495441183284172  0.1932703946564006
  0.7707232954127092  0.5513275803608376  0.2734413228134079
  0.6654540520933154  0.3329101930567364  0.3510290197921118
  0.7781796056355046  0.3861765897396617  0.0254954559782072
  1.0010242435656802  0.5014757689161666  0.1087075669294141
  0.8891323727971115  0.6110260091046963  0.1933514205557911
  0.7771199919429977  0.3863525114019157  0.2692304415438580
  0.6699935189712253  0.5059219561394249  0.3596033422005182
  0.8315180406509844  0.4915580950974950  0.3555403758506127
  0.8328971980627012  0.3257462715859946  0.3560394462175293
  0.1000424037771670  0.8788417829563306  0.0308954786618545
  0.3359421517234883  1.0053796493895606  0.1122472112610527
  0.2236738828864739  0.7795291449611980  0.1947533708659692
  0.1131683617648343  0.8927528546238407  0.2744032039951020
  0.9995554573628339  0.6620508792445655  0.3571958998256922
  0.1077233791627933  0.7158619404648525  0.0324960149179939
  0.3240596409008141  0.8268565282972347  0.1149679142584271
  0.2248180734098292  0.9443879278853655  0.1969065812771319
  0.1014400495988175  0.7167374313419693  0.2765362577595111
  0.9927265843795593  0.8316193141572317  0.3563758204889685
  0.1557636417732182  0.8269540912158387  0.3572771566859559
  0.1559117974622440  0.6690153731744228  0.3688008403790207
  0.4330040921951778  0.8773003617276423  0.0346506454493571
  0.6760500368955364  1.0159660761746812  0.1155365258111169
  0.5468744983518858  0.7773132331616888  0.1899879322554444
  0.4405416555972131  0.8892114326011954  0.2749240321186724
  0.3325159408461306  0.6667140752562585  0.3553138626225861
  0.4500363591411684  0.7307037679612919  0.0298915844547728
  0.6627341839323942  0.8394229034994538  0.1126048878848971
  0.5635136089254927  0.9522104581677897  0.1948586203479107
  0.4304890787017331  0.7169195081945918  0.2698592151191084
  0.3260316359199312  0.8294390480679927  0.3532978209253385
  0.4956728911389883  0.8316496246066148  0.3461233703894259
  0.4924430072900099  0.6668759764276154  0.3532049429810791
  0.7727182031501725  0.8872981957176963  0.0261181761414078
  1.0037069284142242  1.0067500568159753  0.1139397476731699
  0.8930284331606431  0.7767404354469857  0.1928680484761593
  0.7827774721701364  0.8921832004089756  0.2721623279865917
  0.6543431030097311  0.6603060983118612  0.3468304440701218
  0.7708710888280437  0.7187487297585465  0.0331113423351085
  1.0007137124183205  0.8385823222340544  0.1151899808719877
  0.8899838126150416  0.9384902561365841  0.1918111955808465
  0.7741012951169707  0.7204941315425083  0.2711449384212603
  0.6605635166005041  0.8317782726466620  0.3544677092501028
  0.8286706557223925  0.8366923002704527  0.3573600060426558
  0.8260375068589749  0.6697398100146954  0.3552040279180904
  0.2665815878801290  0.0338513305608099  0.0319122880237726
  0.1741284677673747  0.1804537973220059  0.1106741631918089
  0.0567252331347822  0.2808929182306159  0.1893454427491924
  0.2730627565559345  0.0556973697981547  0.2770848497578984
  0.2772840203806000  0.2155054051256176  0.0333638519315832
  0.1798435597417310  0.3445797732627319  0.1113680016604881
  0.0581820144920544  0.1117529514996385  0.1895456903123463
  0.2733363202777821  0.2079535083942549  0.2775611752264607
  0.6060703059689301  0.0551205057703285  0.0331565995460369
  0.4966400944056255  0.1636940417528094  0.1079770834968353
  0.3917533455155747  0.2746652233448109  0.1850436030926379
  0.6036226122262122  0.0557214711977009  0.2750986409688931
  0.6097456925302852  0.2272569525593477  0.0342859132091070
  0.5038019605424938  0.3357658050998956  0.1085603068816896
  0.3911995985614778  0.1099117408745491  0.1926463060358436
  0.6019905893058448  0.2203190697994024  0.2779244498114959
  0.9379252394711345  0.0396335050008661  0.0370757873081466
  0.8360295966057127  0.1680173018115922  0.1206857195726756
  0.7253568357783429  0.2709724437696941  0.1917063875792564
  0.9397774462123695  0.0568331926669130  0.2728904452520583
  0.9441013124431544  0.2107914541528829  0.0407672493731335
  0.8342380921634600  0.3281917023551049  0.1155839903014892
  0.7212368734293301  0.1200915933458724  0.1934153061626569
  0.9458900944966039  0.2264265584747589  0.2712403102923854
  0.2771750038009184  0.3891662474117743  0.0318979102323040
  0.1731336383607948  0.5035969224090756  0.1107681545529309
  0.0587003671415747  0.6170355305721172  0.1936061530431555
  0.2868305206763076  0.3854398519077280  0.2733943750576395
  0.2813091272526692  0.5600114893390642  0.0349535875806536
  0.1658459478432867  0.6654109682536480  0.1156098384025974
  0.0656306664073315  0.4499182981082798  0.1943100619186154
  0.2605245245492609  0.5468535684753123  0.2768167551694224
  0.6031367699321543  0.3827986797761241  0.0348327835365617
  0.4981469222246193  0.4988910977070244  0.1089629455922917
  0.3838742407114650  0.6048486174246797  0.1935682566846414
  0.6145142226996440  0.3927424186699425  0.2728337218148175
  0.6084643276509770  0.5465627149958884  0.0331240391489499
  0.4978203751281737  0.6703468576036441  0.1125851617663128
  0.3808979597326745  0.4312533320690859  0.1885976157696385
  0.6044711545902320  0.5507497070549431  0.2654507986511170
  0.9376188865158382  0.3758538060793913  0.0348380270693081
  0.8332102202369177  0.4942771078640806  0.1094847901455777
  0.7275063486987272  0.6146686580516302  0.1915758123390781
  0.9426889934962184  0.3931940418609983  0.2755791711123664
  0.9448342299641029  0.5511088638802722  0.0331228709959915
  0.8274413700811392  0.6657479145697262  0.1105322235565152
  0.7279813147801768  0.4450528979484083  0.1930442821682962
  0.9379517247968937  0.5566186800485607  0.2756876755379413
  0.2711849222045414  0.7136203437968984  0.0320096387119480
  0.1563975040945380  0.8323400321727571  0.1173296478880626
  0.0508881249379386  0.9405352803177685  0.1926263012103464
  0.2722042427939771  0.7252149795455629  0.2712041212566811
  0.2629699009952183  0.8727346714772404  0.0398281730505339
  0.1656118230692046  1.0014728418493166  0.1133069122333436
  0.0496781656211330  0.7716581991084772  0.1951055195016806
  0.2679492952526137  0.8840739318125429  0.2749334316326351
  0.6117655461946689  0.7289365420073893  0.0337835335876027
  0.4971108730089933  0.8390656197022569  0.1159615547095899
  0.3809238347606613  0.9380299209217444  0.1887506709797989
  0.6063154605839479  0.7201514817315950  0.2676938222289832
  0.6139218576453446  0.9074835020787898  0.0419669477345977
  0.4946803346046525  1.0013014753576588  0.1083047151854559
  0.3883025238619562  0.7860648873976447  0.1947398360982472
  0.6154086855754813  0.8841882410143956  0.2713847733314707
  0.9346182340733977  0.7068091120386560  0.0311408191749651
  0.8300804156613667  0.8377878063801723  0.1096833162644077
  0.7257272125398042  0.9460517550957181  0.1957139934154546
  0.9431484959990397  0.7218678853711600  0.2756402023771705
  0.9412007517818939  0.8834018934660862  0.0348521518951456
  0.8335168581628303  1.0028581252405993  0.1154804540055806
  0.7255090515380039  0.7785139689945897  0.1931007568609746
  0.9408758223761924  0.8887618122301274  0.2743221245841926
  0.4076106118261408  0.2611216829358138  0.4205688198825790
  0.3852508040347915  0.3233129664510219  0.4346386092595876
 
  0.32278044E-03 -0.33680535E-02 -0.37168944E-04
 -0.97536868E-03  0.37502910E-02 -0.18198173E-02
 -0.55333249E-03  0.37473032E-02  0.27306302E-02
  0.30880411E-03  0.99145942E-03 -0.63863503E-03
  0.69034360E-03 -0.33374361E-02  0.87002182E-03
  0.27908773E-02 -0.52127837E-03  0.25708122E-03
  0.28210209E-03  0.17808558E-03  0.26512839E-02
  0.20892814E-03 -0.33198596E-03  0.13547248E-02
  0.29561699E-03 -0.15399478E-03  0.14565825E-02
 -0.15429721E-02 -0.14676178E-02 -0.22754670E-02
  0.25177218E-02  0.33195901E-02  0.21721586E-02
  0.22551956E-02 -0.74835363E-03  0.12501078E-02
 -0.10131798E-03 -0.14949394E-02 -0.24129568E-02
  0.75224293E-03 -0.49133221E-03 -0.51832266E-03
  0.25968825E-02  0.58754833E-03  0.40047764E-03
 -0.96114135E-03 -0.66346698E-03 -0.17540444E-02
  0.21115253E-02 -0.23796372E-02 -0.57789954E-04
 -0.46734825E-03  0.34975398E-03 -0.22389864E-02
  0.15763627E-02 -0.98867079E-03  0.12272960E-03
 -0.12511411E-02 -0.18121120E-02 -0.13633110E-02
  0.23032250E-02 -0.37347921E-03 -0.12080046E-02
 -0.70269276E-03  0.57815592E-03  0.24610499E-02
 -0.11960733E-04  0.27666055E-02  0.13837029E-02
  0.21083763E-02  0.73603946E-03 -0.19527739E-02
  0.45771863E-03  0.45058426E-03 -0.22898454E-02
 -0.84811398E-03 -0.25197424E-02 -0.81632094E-03
 -0.20778412E-02  0.21346761E-02  0.16601467E-03
 -0.60591048E-03 -0.80817353E-03  0.56943793E-03
  0.99290571E-03 -0.15702394E-02  0.41850002E-03
 -0.63945456E-03 -0.13602133E-02  0.35015902E-02
  0.21207681E-03  0.13246034E-02 -0.97254032E-03
  0.21422005E-02  0.13839229E-02  0.65250436E-03
 -0.87904157E-04  0.15790363E-02 -0.31396658E-02
 -0.14870863E-02  0.34427012E-03 -0.25810119E-02
  0.18907198E-02  0.46344306E-03  0.15718277E-02
 -0.20171266E-03 -0.38578999E-03  0.17036961E-04
 -0.12880351E-02  0.20791228E-02 -0.23372357E-03
  0.10730736E-02  0.87106218E-03 -0.25176007E-02
 -0.14520386E-02  0.16298957E-03 -0.72410559E-03
  0.21020080E-02 -0.41661579E-03 -0.10226495E-04
  0.11780498E-02 -0.11578973E-02  0.11984187E-02
  0.19382125E-02 -0.13102460E-02  0.21189225E-03
 -0.15971954E-02 -0.33156560E-02  0.12858452E-02
 -0.23992948E-02  0.18572734E-02 -0.16490591E-02
 -0.34669397E-02  0.28217180E-02  0.61803115E-04
 -0.51191680E-03 -0.13110413E-02  0.23984594E-02
  0.14698529E-02  0.85982852E-03  0.32375239E-02
  0.21642236E-02  0.22559190E-02 -0.50890827E-03
 -0.81040213E-03 -0.13198703E-02 -0.33591595E-02
  0.13566905E-02 -0.19851149E-02 -0.28906078E-02
  0.49984908E-03  0.37188299E-03 -0.29089659E-02
 -0.26756222E-02 -0.32181406E-02 -0.10463646E-02
  0.20891243E-02 -0.13319202E-02  0.24145289E-02
 -0.18419001E-02  0.12024971E-02 -0.22873170E-03
  0.89561642E-03  0.99354562E-03 -0.27951771E-02
 -0.25610238E-03  0.80723234E-04 -0.15932081E-02
 -0.21579369E-02 -0.28431692E-02  0.37078333E-04
 -0.30861015E-02 -0.15244688E-03  0.27330341E-02
  0.17936200E-02 -0.32497647E-02  0.25485738E-03
 -0.14002955E-02 -0.33066620E-03  0.60925266E-03
 -0.46484842E-02  0.17471707E-02 -0.19349828E-02
 -0.71584873E-03 -0.60077540E-03  0.17967783E-02
  0.13172843E-02 -0.52749752E-03 -0.21361807E-03
  0.28470436E-02 -0.13630151E-02 -0.11049208E-02
 -0.18446617E-03 -0.25465007E-02  0.20635553E-03
  0.47577645E-03 -0.55953260E-03  0.28639457E-03
  0.66049160E-03  0.23432213E-02  0.12636014E-02
 -0.94913163E-03  0.32948375E-02  0.19656595E-02
  0.13886024E-02  0.13979208E-02 -0.31365228E-02
 -0.72903341E-03  0.45728732E-03  0.11011798E-02
 -0.39292636E-02  0.11643366E-02  0.81231533E-03
  0.74690187E-03 -0.26654488E-02 -0.38895903E-04
  0.26218304E-02  0.23463382E-02  0.42667977E-02
 -0.24879907E-02  0.17099863E-03  0.24722601E-02
  0.14453029E-02 -0.23642877E-03  0.93724003E-03
  0.34523923E-04  0.66971483E-03  0.13889587E-02
  0.63540760E-03  0.31102773E-02 -0.89316730E-03
 -0.38555900E-03  0.94727279E-03 -0.45084721E-03
 -0.39294837E-03 -0.12582394E-02 -0.11154272E-02
 -0.13666674E-02 -0.11215568E-02 -0.17731911E-02
  0.22017271E-03 -0.44425671E-03  0.16177820E-02
  0.16629817E-02  0.81620498E-03 -0.58289320E-04
 -0.10503664E-02  0.12429491E-02 -0.33918922E-03
 -0.64615308E-03 -0.13106532E-02 -0.10766953E-03
  0.68987793E-04 -0.19555890E-02  0.17590684E-02
 -0.83933598E-03 -0.18509825E-02 -0.23092360E-03
 -0.73014973E-03 -0.62984747E-03  0.78620764E-03
 -0.72144508E-03 -0.48177029E-03 -0.11023605E-02
  0.68343750E-03 -0.65293096E-03 -0.51500808E-03
  0.12550910E-02 -0.36300444E-02 -0.52982479E-03
 -0.19690585E-02 -0.26968636E-03  0.20852534E-02
 -0.22613165E-02 -0.20816334E-02 -0.55887241E-03
 -0.10842373E-02  0.60756210E-03  0.13488584E-03
 -0.61796303E-03  0.28486506E-03  0.14027037E-03
 -0.25798001E-03  0.12044801E-02  0.57066842E-04
 -0.17757922E-02 -0.14793089E-02  0.35071178E-02
 -0.99247654E-04  0.14058388E-03 -0.17211048E-02
 -0.88247155E-03  0.38342705E-03  0.13119217E-02
 -0.17112384E-02  0.78984907E-03  0.26882881E-02
 -0.20360139E-02  0.26254022E-03 -0.86041395E-03
  0.19049559E-02  0.29181873E-02 -0.11114875E-03
  0.24560466E-02  0.46374898E-03 -0.19025923E-02
 -0.15543078E-02 -0.21134967E-02  0.12701091E-04
  0.62521949E-04 -0.28759152E-03 -0.18700683E-02
 -0.10053084E-02  0.21861972E-02 -0.11397290E-02
  0.13881672E-02  0.63084357E-03  0.53882656E-03
  0.10964651E-02  0.20923753E-02  0.25579579E-02
  0.24361212E-03  0.54511514E-03  0.11097366E-02
 -0.28851864E-02 -0.53540017E-03  0.22125888E-02
 -0.59842112E-03  0.82766234E-03  0.61815618E-03
  0.17207696E-02  0.11911340E-02 -0.19252139E-03
 -0.17424897E-02  0.14211033E-02 -0.12422838E-02
  0.27821247E-02 -0.60150792E-03  0.24212673E-02
  0.15918893E-03 -0.25703344E-02 -0.18141738E-02
  0.19857606E-02 -0.99902965E-03  0.69978506E-03
 -0.35960398E-03 -0.94231898E-03  0.25135712E-03
 -0.39958785E-03  0.90499149E-03  0.22581800E-03
  0.45759509E-03  0.25633560E-02 -0.25676510E-02
 -0.17503024E-02 -0.94912245E-03 -0.12768500E-02
 -0.16519328E-03 -0.81067127E-03  0.12543881E-02
 -0.92895102E-04  0.23959272E-02  0.49716414E-04
  0.25057104E-03  0.40593780E-03  0.83528576E-03
  0.37944163E-02 -0.67906987E-03  0.89071948E-03
  0.43289055E-03 -0.73400313E-03  0.32940511E-03
 -0.25671711E-03  0.99543018E-03 -0.24292680E-03
 -0.77114012E-03 -0.35171664E-03 -0.13584215E-02
 -0.31286261E-02  0.16293292E-02  0.21037114E-02
  0.30234626E-03 -0.27196223E-02  0.55168629E-03
  0.25363034E-02  0.95672338E-03 -0.97097494E-04
  0.13590845E-02  0.19639254E-02 -0.71151221E-03
 -0.75902585E-03  0.22652477E-03 -0.33055737E-04
  0.10188694E-02  0.19504983E-02 -0.17365338E-02
  0.21462924E-02  0.13780313E-02  0.10593948E-02
 -0.25775839E-02  0.22188006E-02 -0.57738400E-03
  0.10627446E-02 -0.52707671E-03 -0.15756674E-02
 -0.79890084E-03  0.81666776E-03  0.23529917E-02
 -0.11072464E-02  0.66124248E-04  0.20324856E-02
  0.11114648E-02 -0.86507858E-03 -0.59546881E-03
 -0.73800550E-03 -0.19339350E-02 -0.88600287E-04
 -0.16176204E-02 -0.37700422E-03 -0.13734678E-02
 -0.73862853E-03 -0.70347299E-03  0.21953293E-03
  0.13272914E-02  0.47165509E-03  0.20795658E-02
  0.40794803E-02  0.20528567E-03  0.20822421E-02
 -0.45899445E-03 -0.14934741E-02  0.27581450E-02
  0.14313203E-02  0.11896659E-02  0.62546008E-04
 -0.56760456E-03  0.20362661E-03 -0.73572941E-04
  0.14526634E-02 -0.47185393E-03  0.59159057E-03
 -0.91660812E-03 -0.30167349E-03 -0.14274320E-02
  0.84839155E-03 -0.10550814E-02  0.40813626E-03
 -0.15279432E-02  0.29827970E-03 -0.99679626E-03
 -0.18122021E-02  0.86432303E-03 -0.37192551E-02
  0.10703409E-02 -0.18472733E-03 -0.25191975E-02
 -0.10233243E-02  0.18172694E-03 -0.49502365E-02
  0.68106634E-03  0.17353027E-03 -0.26450479E-02
 -0.24403946E-02  0.65300048E-03 -0.25108807E-02
 -0.14293023E-03  0.84259472E-03 -0.11548602E-02
 -0.12124005E-02 -0.19611054E-03 -0.13172534E-02
  0.65371140E-03  0.14173241E-02 -0.36007125E-04
 -0.21596341E-02 -0.17034010E-02 -0.18034965E-02
 -0.58366250E-03  0.21665098E-02 -0.31210042E-02
 -0.13600437E-03 -0.18142894E-02  0.20887388E-02
  0.11753231E-02 -0.68223241E-03  0.61421685E-03
  0.84909769E-03  0.22781650E-02 -0.17067670E-02
  0.10687323E-02 -0.66568790E-03 -0.12729703E-02
 -0.73430304E-03 -0.17530728E-02 -0.34546935E-03
  0.15340407E-02  0.93686252E-03 -0.12634339E-02
  0.11195452E-02  0.16415357E-02  0.22507333E-02
  0.13406954E-02  0.13437190E-02  0.14566091E-02
 -0.87978038E-03  0.22093884E-02  0.16145789E-02
  0.11191436E-02 -0.30086055E-02 -0.44566611E-03
 -0.22204002E-02  0.11967430E-02 -0.20543598E-02
 -0.18017895E-02  0.24033784E-02  0.24841366E-02
  0.13954540E-02 -0.15107193E-02 -0.99324466E-04
  0.84177669E-03  0.71345647E-04  0.15548554E-03
 -0.54772466E-03 -0.10607978E-02  0.17027996E-02
 -0.10623229E-02  0.14713546E-03  0.76574830E-03
  0.28553494E-02  0.13868438E-02  0.11533489E-02
  0.23773905E-02 -0.16757712E-02  0.20147050E-02
 -0.24461011E-02 -0.85636382E-03  0.98522687E-03
 -0.20158346E-03 -0.37365311E-02  0.52596940E-03
  0.70315281E-03 -0.49710234E-02  0.19752920E-02
 -0.75338785E-02 -0.39454836E-02 -0.21599289E-02
 
           1
   2.00000000000000     
 -0.41869797E+00 -0.58203327E-03 -0.67290796E-03 -0.41807050E+00
  0.11340274E+00  0.23548422E+00  0.28147531E-01
  0.34012108E+00  0.33526074E+00  0.10434625E+00
  0.22391445E+00  0.10706854E+00  0.19052763E+00
  0.11096458E+00  0.22553525E+00  0.26862462E+00
  0.98876793E+00  0.99509385E+00  0.36153240E+00
  0.10924074E+00  0.65708038E-01  0.32432099E-01
  0.33331869E+00  0.16090560E+00  0.10865641E+00
  0.22540690E+00  0.26881664E+00  0.19485155E+00
  0.10000830E+00  0.47302613E-01  0.27759487E+00
  0.98732066E+00  0.15568944E+00  0.35315209E+00
  0.16205515E+00  0.16474590E+00  0.35705834E+00
  0.15613133E+00  0.99997577E+00  0.35443988E+00
  0.44677450E+00  0.21711026E+00  0.26399927E-01
  0.67312535E+00  0.33428298E+00  0.11456293E+00
  0.55302734E+00  0.11055473E+00  0.19402842E+00
  0.43313249E+00  0.21699618E+00  0.27413967E+00
  0.31590018E+00  0.99229832E+00  0.35661002E+00
  0.43982446E+00  0.52063764E-01  0.22602856E-01
  0.66099976E+00  0.16737108E+00  0.11113677E+00
  0.56185679E+00  0.27577212E+00  0.19332928E+00
  0.43561817E+00  0.55814210E-01  0.27359611E+00
  0.32875713E+00  0.15917380E+00  0.36572075E+00
  0.49814876E+00  0.16859093E+00  0.35392472E+00
  0.49423945E+00  0.99818713E+00  0.36092923E+00
  0.78027699E+00  0.22325188E+00  0.33786480E-01
  0.99945386E+00  0.33847453E+00  0.11514113E+00
  0.88030458E+00  0.10642717E+00  0.19674552E+00
  0.77952412E+00  0.22456737E+00  0.27347978E+00
  0.66849757E+00  0.16552220E-02  0.35316680E+00
  0.77984447E+00  0.59392891E-01  0.32726375E-01
  0.75071039E-02  0.16941573E+00  0.11559672E+00
  0.90160201E+00  0.28934551E+00  0.19289308E+00
  0.77892398E+00  0.59026385E-01  0.27670285E+00
  0.66563924E+00  0.15834572E+00  0.36362554E+00
  0.83683195E+00  0.17046823E+00  0.36356865E+00
  0.81833748E+00  0.99212831E+00  0.36023588E+00
  0.11293053E+00  0.55771446E+00  0.31541809E-01
  0.33492638E+00  0.67293511E+00  0.11576790E+00
  0.22142267E+00  0.44152195E+00  0.19217170E+00
  0.98765578E-01  0.55556993E+00  0.27049708E+00
  0.99750580E+00  0.32737557E+00  0.35661547E+00
  0.12049354E+00  0.40189067E+00  0.29700118E-01
  0.34326473E+00  0.50848123E+00  0.11206197E+00
  0.22326380E+00  0.61012901E+00  0.19634251E+00
  0.10145696E+00  0.38624706E+00  0.27201735E+00
  0.99676171E+00  0.49289705E+00  0.35509573E+00
  0.15685008E+00  0.49503879E+00  0.35855965E+00
  0.15595320E+00  0.32511005E+00  0.34942237E+00
  0.44718295E+00  0.55744614E+00  0.27285747E-01
  0.66740018E+00  0.67277817E+00  0.11101585E+00
  0.55826644E+00  0.43825046E+00  0.19277658E+00
  0.43987482E+00  0.56015625E+00  0.27041542E+00
  0.33286544E+00  0.34030902E+00  0.35829593E+00
  0.44136937E+00  0.38323658E+00  0.25715466E-01
  0.67225472E+00  0.50295208E+00  0.11292463E+00
  0.54883522E+00  0.60535119E+00  0.18793177E+00
  0.44424445E+00  0.38458162E+00  0.27028697E+00
  0.32372975E+00  0.50248511E+00  0.35408667E+00
  0.49095077E+00  0.50288260E+00  0.35196351E+00
  0.50419167E+00  0.34172897E+00  0.35147878E+00
  0.76969332E+00  0.54770438E+00  0.22118528E-01
  0.99346428E+00  0.66971205E+00  0.11201162E+00
  0.89735599E+00  0.44947281E+00  0.19325581E+00
  0.77096389E+00  0.55114333E+00  0.27336591E+00
  0.66526149E+00  0.33256596E+00  0.35104310E+00
  0.77819753E+00  0.38610095E+00  0.25515003E-01
  0.12586879E-02  0.50179252E+00  0.10879381E+00
  0.88924295E+00  0.61147140E+00  0.19348558E+00
  0.77737589E+00  0.38654148E+00  0.26901636E+00
  0.66993918E+00  0.50598377E+00  0.35967850E+00
  0.83113784E+00  0.49171549E+00  0.35559582E+00
  0.83280530E+00  0.32538596E+00  0.35603679E+00
  0.10050587E+00  0.87915896E+00  0.31186702E-01
  0.33566338E+00  0.54027646E-02  0.11241595E+00
  0.22382662E+00  0.77949719E+00  0.19481734E+00
  0.11321737E+00  0.89284339E+00  0.27449801E+00
  0.99983850E+00  0.66247132E+00  0.35713494E+00
  0.10774202E+00  0.71598999E+00  0.32465243E-01
  0.32392928E+00  0.82668644E+00  0.11489178E+00
  0.22458330E+00  0.94423632E+00  0.19678556E+00
  0.10143590E+00  0.71667738E+00  0.27664668E+00
  0.99297542E+00  0.83172965E+00  0.35637184E+00
  0.15572459E+00  0.82712211E+00  0.35725401E+00
  0.15574838E+00  0.66883820E+00  0.36879349E+00
  0.43288079E+00  0.87703601E+00  0.34770708E-01
  0.67582779E+00  0.15715865E-01  0.11552076E+00
  0.54674701E+00  0.77722809E+00  0.19004159E+00
  0.44042513E+00  0.88914631E+00  0.27484879E+00
  0.33255182E+00  0.66662581E+00  0.35527871E+00
  0.44993896E+00  0.73021307E+00  0.29855422E-01
  0.66248635E+00  0.83938645E+00  0.11274721E+00
  0.56310998E+00  0.95192907E+00  0.19482048E+00
  0.43040340E+00  0.71700164E+00  0.26986842E+00
  0.32597868E+00  0.82947756E+00  0.35330739E+00
  0.49572370E+00  0.83181244E+00  0.34612727E+00
  0.49213647E+00  0.66667601E+00  0.35344432E+00
  0.77271607E+00  0.88731720E+00  0.26000705E-01
  0.36297300E-02  0.68018875E-02  0.11402929E+00
  0.89288185E+00  0.77684721E+00  0.19305153E+00
  0.78255758E+00  0.89221869E+00  0.27210360E+00
  0.65476135E+00  0.66070057E+00  0.34682286E+00
  0.77118877E+00  0.71881142E+00  0.32981484E-01
  0.39042228E-03  0.83829662E+00  0.11519085E+00
  0.88997179E+00  0.93845138E+00  0.19168356E+00
  0.77413085E+00  0.72078966E+00  0.27106715E+00
  0.66076784E+00  0.83186355E+00  0.35450449E+00
  0.82893911E+00  0.83697514E+00  0.35753460E+00
  0.82610254E+00  0.66981350E+00  0.35527977E+00
  0.26620903E+00  0.33778956E-01  0.32063305E-01
  0.17411425E+00  0.18056568E+00  0.11071635E+00
  0.57005990E-01  0.28105393E+00  0.18933230E+00
  0.27295492E+00  0.55889471E-01  0.27700006E+00
  0.27756819E+00  0.21542409E+00  0.33529111E-01
  0.17968949E+00  0.34423232E+00  0.11124418E+00
  0.58346578E-01  0.11161791E+00  0.18959345E+00
  0.27323107E+00  0.20782613E+00  0.27757833E+00
  0.60608447E+00  0.55242840E-01  0.33172012E-01
  0.49686565E+00  0.16404055E+00  0.10780183E+00
  0.39148540E+00  0.27453692E+00  0.18495645E+00
  0.60354889E+00  0.55611887E-01  0.27518426E+00
  0.60989578E+00  0.22758083E+00  0.34289307E-01
  0.50385846E+00  0.33582068E+00  0.10861732E+00
  0.39159666E+00  0.10981995E+00  0.19270710E+00
  0.60199179E+00  0.22021985E+00  0.27794693E+00
  0.93796215E+00  0.39768065E-01  0.37059207E-01
  0.83591601E+00  0.16796976E+00  0.12059300E+00
  0.72510128E+00  0.27119269E+00  0.19184997E+00
  0.93963005E+00  0.56465561E-01  0.27292810E+00
  0.94446147E+00  0.21092078E+00  0.40760622E-01
  0.83452856E+00  0.32845718E+00  0.11553543E+00
  0.72116354E+00  0.12012221E+00  0.19341305E+00
  0.94613997E+00  0.22669022E+00  0.27112179E+00
  0.27751796E+00  0.38935253E+00  0.31970217E-01
  0.17298196E+00  0.50389685E+00  0.11072875E+00
  0.58788948E-01  0.61696428E+00  0.19349861E+00
  0.28679217E+00  0.38555025E+00  0.27355497E+00
  0.28118439E+00  0.56002043E+00  0.35092311E-01
  0.16591751E+00  0.66529403E+00  0.11556920E+00
  0.65414670E-01  0.44965687E+00  0.19430401E+00
  0.26031048E+00  0.54680261E+00  0.27672301E+00
  0.60300335E+00  0.38270359E+00  0.34847767E-01
  0.49833345E+00  0.49895485E+00  0.10910488E+00
  0.38436396E+00  0.60487637E+00  0.19371038E+00
  0.61436036E+00  0.39254053E+00  0.27302197E+00
  0.60871122E+00  0.54672353E+00  0.33128308E-01
  0.49776783E+00  0.67037438E+00  0.11258014E+00
  0.38103574E+00  0.43118955E+00  0.18863799E+00
  0.60434396E+00  0.55070893E+00  0.26535337E+00
  0.93764700E+00  0.37571118E+00  0.34865884E-01
  0.83305200E+00  0.49431743E+00  0.10941676E+00
  0.72735299E+00  0.61478550E+00  0.19132196E+00
  0.94280146E+00  0.39316907E+00  0.27540723E+00
  0.94472705E+00  0.55113343E+00  0.32785001E-01
  0.82753248E+00  0.66577137E+00  0.11035169E+00
  0.72774047E+00  0.44514117E+00  0.19287291E+00
  0.93799165E+00  0.55673258E+00  0.27560885E+00
  0.27103031E+00  0.71359383E+00  0.31919732E-01
  0.15656897E+00  0.83253162E+00  0.11732719E+00
  0.50521760E-01  0.94030502E+00  0.19250321E+00
  0.27228167E+00  0.72550784E+00  0.27099110E+00
  0.26283217E+00  0.87248942E+00  0.39970736E-01
  0.16570312E+00  0.13806194E-02  0.11334883E+00
  0.49930244E-01  0.77196616E+00  0.19498903E+00
  0.26802926E+00  0.88398395E+00  0.27484655E+00
  0.61156213E+00  0.72869957E+00  0.33759954E-01
  0.49735277E+00  0.83919226E+00  0.11587532E+00
  0.38116470E+00  0.93825182E+00  0.18890429E+00
  0.60656213E+00  0.72033312E+00  0.26779324E+00
  0.61396762E+00  0.90778216E+00  0.42077148E-01
  0.49460882E+00  0.89477951E-03  0.10827430E+00
  0.38812387E+00  0.78622666E+00  0.19459962E+00
  0.61535991E+00  0.88451312E+00  0.27155432E+00
  0.93467956E+00  0.70660490E+00  0.31134040E-01
  0.83018341E+00  0.83779745E+00  0.10969393E+00
  0.72559206E+00  0.94590836E+00  0.19583022E+00
  0.94303444E+00  0.72188777E+00  0.27569247E+00
  0.94162702E+00  0.88358936E+00  0.34930872E-01
  0.83368166E+00  0.26315986E-02  0.11561796E+00
  0.72516616E+00  0.77839821E+00  0.19316800E+00
  0.94060133E+00  0.88825672E+00  0.27435802E+00
  0.40735875E+00  0.26044971E+00  0.42070364E+00
  0.38410686E+00  0.32277963E+00  0.43449119E+00
  0.00000000E+00  0.00000000E+00  0.00000000E+00
  0.00000000E+00  0.00000000E+00  0.00000000E+00
  0.00000000E+00  0.00000000E+00  0.00000000E+00
  0.00000000E+00  0.00000000E+00  0.00000000E+00
  0.00000000E+00  0.00000000E+00  0.00000000E+00
  0.00000000E+00  0.00000000E+00  0.00000000E+00
  0.00000000E+00  0.00000000E+00  0.00000000E+00
  0.00000000E+00  0.00000000E+00  0.00000000E+00
  0.00000000E+00  0.00000000E+00  0.00000000E+00
  0.00000000E+00  0.00000000E+00  0.00000000E+00
  0.00000000E+00  0.00000000E+00  0.00000000E+00
  0.00000000E+00  0.00000000E+00  0.00000000E+00
  0.00000000E+00  0.00000000E+00  0.00000000E+00