CONTCAR2
1.0
       17.1432991028         0.0000000000         0.0000000000
       -8.5182616025        14.7953589042         0.0000000000
        0.0000000000         0.0000000000        29.3026008606
   Ag   Pd    O
  108   72    2
Direct
     0.106169999         0.219750002         0.034130000
     0.329629987         0.331479996         0.113640003
     0.219750002         0.109880000         0.193159997
     0.109880000         0.221599996         0.272670001
     0.999050021         0.997409999         0.353159994
     0.106169999         0.053080000         0.034130000
     0.329629987         0.164810002         0.113640003
     0.219750002         0.276540011         0.193159997
     0.109880000         0.054940000         0.272670001
     0.995729983         0.168180004         0.350120008
     0.170530006         0.166130006         0.354090005
     0.166869998         0.000810000         0.353500009
     0.439500004         0.219750002         0.034130000
     0.662959993         0.331479996         0.113640003
     0.553080022         0.109880000         0.193159997
     0.443210006         0.221599996         0.272670001
     0.331389993         0.994180024         0.350070000
     0.439500004         0.053080000         0.034130000
     0.662959993         0.164810002         0.113640003
     0.553080022         0.276540011         0.193159997
     0.443210006         0.054940000         0.272670001
     0.333590001         0.168090001         0.353960007
     0.502439976         0.167689994         0.354950011
     0.500060022         0.999180019         0.353219986
     0.772840023         0.219750002         0.034130000
     0.996290028         0.331479996         0.113640003
     0.886420012         0.109880000         0.193159997
     0.776539981         0.221599996         0.272670001
     0.664040029         0.998019993         0.354409993
     0.772840023         0.053080000         0.034130000
     0.996290028         0.164810002         0.113640003
     0.886420012         0.276540011         0.193159997
     0.776539981         0.054940000         0.272670001
     0.664139986         0.166339993         0.353810012
     0.838760018         0.170739993         0.350910008
     0.832710028         0.998679996         0.353630006
     0.106169999         0.553080022         0.034130000
     0.329629987         0.664810002         0.113640003
     0.219750002         0.443210006         0.193159997
     0.109880000         0.554939985         0.272670001
     0.000610000         0.336120009         0.352010012
     0.106169999         0.386420012         0.034130000
     0.329629987         0.498149991         0.113640003
     0.219750002         0.609879971         0.193159997
     0.109880000         0.388269991         0.272670001
     0.999880016         0.497920007         0.353489995
     0.165069997         0.500209987         0.354290009
     0.163910002         0.328370005         0.350840002
     0.439500004         0.553080022         0.034130000
     0.662959993         0.664810002         0.113640003
     0.553080022         0.443210006         0.193159997
     0.443210006         0.554939985         0.272670001
     0.332249999         0.332300007         0.352349997
     0.439500004         0.386420012         0.034130000
     0.662959993         0.498149991         0.113640003
     0.553080022         0.609879971         0.193159997
     0.443210006         0.388269991         0.272670001
     0.334039986         0.500569999         0.350620002
     0.498250008         0.501119971         0.351760000
     0.500000000         0.329829991         0.353269994
     0.772840023         0.553080022         0.034130000
     0.996290028         0.664810002         0.113640003
     0.886420012         0.443210006         0.193159997
     0.776539981         0.554939985         0.272670001
     0.665380001         0.331250012         0.351949990
     0.772840023         0.386420012         0.034130000
     0.996290028         0.498149991         0.113640003
     0.886420012         0.609879971         0.193159997
     0.776539981         0.388269991         0.272670001
     0.664719999         0.497590005         0.353899986
     0.830699980         0.502269983         0.351419985
     0.833670020         0.333009988         0.354779989
     0.106169999         0.886420012         0.034130000
     0.329629987         0.998149991         0.113640003
     0.219750002         0.776539981         0.193159997
     0.109880000         0.888270020         0.272670001
     0.996159971         0.665629983         0.351720005
     0.106169999         0.719749987         0.034130000
     0.329629987         0.831480026         0.113640003
     0.219750002         0.943210006         0.193159997
     0.109880000         0.721599996         0.272670001
     0.999740005         0.833940029         0.352290004
     0.167459995         0.836160004         0.351619989
     0.167329997         0.665440023         0.353769988
     0.439500004         0.886420012         0.034130000
     0.662959993         0.998149991         0.113640003
     0.553080022         0.776539981         0.193159997
     0.443210006         0.888270020         0.272670001
     0.328869998         0.665929973         0.351940006
     0.439500004         0.719749987         0.034130000
     0.662959993         0.831480026         0.113640003
     0.553080022         0.943210006         0.193159997
     0.443210006         0.721599996         0.272670001
     0.332830012         0.832360029         0.352209985
     0.501240015         0.835529983         0.355210006
     0.504740000         0.668420017         0.351599991
     0.772840023         0.886420012         0.034130000
     0.996290028         0.998149991         0.113640003
     0.886420012         0.776539981         0.193159997
     0.776539981         0.888270020         0.272670001
     0.663259983         0.665019989         0.350019991
     0.772840023         0.719749987         0.034130000
     0.996290028         0.831480026         0.113640003
     0.886420012         0.943210006         0.193159997
     0.776539981         0.721599996         0.272670001
     0.666530013         0.834990025         0.352670014
     0.836809993         0.836849988         0.355049998
     0.835529983         0.667649984         0.354889989
     0.272839993         0.053080000         0.034130000
     0.162959993         0.164810002         0.113640003
     0.053080000         0.276540011         0.193159997
     0.276540011         0.054940000         0.272670001
     0.272839993         0.219750002         0.034130000
     0.162959993         0.331479996         0.113640003
     0.053080000         0.109880000         0.193159997
     0.276540011         0.221599996         0.272670001
     0.606169999         0.053080000         0.034130000
     0.496289998         0.164810002         0.113640003
     0.386420012         0.276540011         0.193159997
     0.609879971         0.054940000         0.272670001
     0.606169999         0.219750002         0.034130000
     0.496289998         0.331479996         0.113640003
     0.386420012         0.109880000         0.193159997
     0.609879971         0.221599996         0.272670001
     0.939499974         0.053080000         0.034130000
     0.829630017         0.164810002         0.113640003
     0.719749987         0.276540011         0.193159997
     0.943210006         0.054940000         0.272670001
     0.939499974         0.219750002         0.034130000
     0.829630017         0.331479996         0.113640003
     0.719749987         0.109880000         0.193159997
     0.943210006         0.221599996         0.272670001
     0.272839993         0.386420012         0.034130000
     0.162959993         0.498149991         0.113640003
     0.053080000         0.609879971         0.193159997
     0.276540011         0.388269991         0.272670001
     0.272839993         0.553080022         0.034130000
     0.162959993         0.664810002         0.113640003
     0.053080000         0.443210006         0.193159997
     0.276540011         0.554939985         0.272670001
     0.606169999         0.386420012         0.034130000
     0.496289998         0.498149991         0.113640003
     0.386420012         0.609879971         0.193159997
     0.609879971         0.388269991         0.272670001
     0.606169999         0.553080022         0.034130000
     0.496289998         0.664810002         0.113640003
     0.386420012         0.443210006         0.193159997
     0.609879971         0.554939985         0.272670001
     0.939499974         0.386420012         0.034130000
     0.829630017         0.498149991         0.113640003
     0.719749987         0.609879971         0.193159997
     0.943210006         0.388269991         0.272670001
     0.939499974         0.553080022         0.034130000
     0.829630017         0.664810002         0.113640003
     0.719749987         0.443210006         0.193159997
     0.943210006         0.554939985         0.272670001
     0.272839993         0.719749987         0.034130000
     0.162959993         0.831480026         0.113640003
     0.053080000         0.943210006         0.193159997
     0.276540011         0.721599996         0.272670001
     0.272839993         0.886420012         0.034130000
     0.162959993         0.998149991         0.113640003
     0.053080000         0.776539981         0.193159997
     0.276540011         0.888270020         0.272670001
     0.606169999         0.719749987         0.034130000
     0.496289998         0.831480026         0.113640003
     0.386420012         0.943210006         0.193159997
     0.609879971         0.721599996         0.272670001
     0.606169999         0.886420012         0.034130000
     0.496289998         0.998149991         0.113640003
     0.386420012         0.776539981         0.193159997
     0.609879971         0.888270020         0.272670001
     0.939499974         0.719749987         0.034130000
     0.829630017         0.831480026         0.113640003
     0.719749987         0.943210006         0.193159997
     0.943210006         0.721599996         0.272670001
     0.939499974         0.886420012         0.034130000
     0.829630017         0.998149991         0.113640003
     0.719749987         0.776539981         0.193159997
     0.943210006         0.888270020         0.272670001
     0.592230022         0.577279985         0.451660006
     0.645030022         0.538919985         0.455560007
