CONTCAR\(3)
1.0
       17.1432991028         0.0000000000         0.0000000000
       -8.5182616025        14.7953589042         0.0000000000
        0.0000000000         0.0000000000        29.3026008606
   Ag   Pd    O
   90   90    2
Direct
     0.106169999         0.219750002         0.034130000
     0.329629987         0.331479996         0.113640003
     0.219750002         0.109880000         0.193159997
     0.109880000         0.221599996         0.272670001
     0.998049974         0.999069989         0.352340013
     0.106169999         0.053080000         0.034130000
     0.329629987         0.164810002         0.113640003
     0.219750002         0.276540011         0.193159997
     0.109880000         0.054940000         0.272670001
     0.004680000         0.169039994         0.352479994
     0.439500004         0.219750002         0.034130000
     0.662959993         0.331479996         0.113640003
     0.553080022         0.109880000         0.193159997
     0.443210006         0.221599996         0.272670001
     0.331680000         0.999289989         0.352369994
     0.439500004         0.053080000         0.034130000
     0.662959993         0.164810002         0.113640003
     0.553080022         0.276540011         0.193159997
     0.443210006         0.054940000         0.272670001
     0.337960005         0.168939993         0.352510005
     0.772840023         0.219750002         0.034130000
     0.996290028         0.331479996         0.113640003
     0.886420012         0.109880000         0.193159997
     0.776539981         0.221599996         0.272670001
     0.664849997         0.999230027         0.352360010
     0.772840023         0.053080000         0.034130000
     0.996290028         0.164810002         0.113640003
     0.886420012         0.276540011         0.193159997
     0.776539981         0.054940000         0.272670001
     0.671320021         0.169049993         0.352499992
     0.106169999         0.553080022         0.034130000
     0.329629987         0.664810002         0.113640003
     0.219750002         0.443210006         0.193159997
     0.109880000         0.554939985         0.272670001
     0.998459995         0.332529992         0.352340013
     0.106169999         0.386420012         0.034130000
     0.329629987         0.498149991         0.113640003
     0.219750002         0.609879971         0.193159997
     0.109880000         0.388269991         0.272670001
     0.004700000         0.502309978         0.352479994
     0.439500004         0.553080022         0.034130000
     0.662959993         0.664810002         0.113640003
     0.553080022         0.443210006         0.193159997
     0.443210006         0.554939985         0.272670001
     0.331710011         0.332399994         0.352319986
     0.439500004         0.386420012         0.034130000
     0.662959993         0.498149991         0.113640003
     0.553080022         0.609879971         0.193159997
     0.443210006         0.388269991         0.272670001
     0.338039994         0.502349973         0.352499992
     0.772840023         0.553080022         0.034130000
     0.996290028         0.664810002         0.113640003
     0.886420012         0.443210006         0.193159997
     0.776539981         0.554939985         0.272670001
     0.665180027         0.332670003         0.352349997
     0.772840023         0.386420012         0.034130000
     0.996290028         0.498149991         0.113640003
     0.886420012         0.609879971         0.193159997
     0.776539981         0.388269991         0.272670001
     0.671360016         0.502340019         0.352510005
     0.106169999         0.886420012         0.034130000
     0.329629987         0.998149991         0.113640003
     0.219750002         0.776539981         0.193159997
     0.109880000         0.888270020         0.272670001
     0.998390019         0.665939987         0.352329999
     0.106169999         0.719749987         0.034130000
     0.329629987         0.831480026         0.113640003
     0.219750002         0.943210006         0.193159997
     0.109880000         0.721599996         0.272670001
     0.004500000         0.835560024         0.352479994
     0.439500004         0.886420012         0.034130000
     0.662959993         0.998149991         0.113640003
     0.553080022         0.776539981         0.193159997
     0.443210006         0.888270020         0.272670001
     0.331710011         0.665899992         0.352349997
     0.439500004         0.719749987         0.034130000
     0.662959993         0.831480026         0.113640003
     0.553080022         0.943210006         0.193159997
     0.443210006         0.721599996         0.272670001
     0.337949991         0.835690022         0.352499992
     0.772840023         0.886420012         0.034130000
     0.996290028         0.998149991         0.113640003
     0.886420012         0.776539981         0.193159997
     0.776539981         0.888270020         0.272670001
     0.664940000         0.665830016         0.352349997
     0.772840023         0.719749987         0.034130000
     0.996290028         0.831480026         0.113640003
     0.886420012         0.943210006         0.193159997
     0.776539981         0.721599996         0.272670001
     0.671209991         0.835669994         0.352490008
     0.169620007         0.166050002         0.352600008
     0.169450000         0.003220000         0.352580011
     0.503109992         0.166299999         0.352609992
     0.502830029         0.003510000         0.352629989
     0.836300015         0.166180000         0.352609992
     0.836059988         0.003450000         0.352649987
     0.169670001         0.499350011         0.352660000
     0.169760004         0.336670011         0.352450013
     0.502919972         0.499410003         0.352679998
     0.503019989         0.336719990         0.352550000
     0.836390018         0.499520004         0.352660000
     0.836380005         0.336739987         0.352499992
     0.169579998         0.832750022         0.352609992
     0.169689998         0.670059979         0.352490008
     0.502879977         0.832769990         0.352600008
     0.502960026         0.670120001         0.352550000
     0.836120009         0.832679987         0.352620006
     0.836290002         0.670090020         0.352589995
     0.272839993         0.053080000         0.034130000
     0.162959993         0.164810002         0.113640003
     0.053080000         0.276540011         0.193159997
     0.276540011         0.054940000         0.272670001
     0.272839993         0.219750002         0.034130000
     0.162959993         0.331479996         0.113640003
     0.053080000         0.109880000         0.193159997
     0.276540011         0.221599996         0.272670001
     0.606169999         0.053080000         0.034130000
     0.496289998         0.164810002         0.113640003
     0.386420012         0.276540011         0.193159997
     0.609879971         0.054940000         0.272670001
     0.606169999         0.219750002         0.034130000
     0.496289998         0.331479996         0.113640003
     0.386420012         0.109880000         0.193159997
     0.609879971         0.221599996         0.272670001
     0.939499974         0.053080000         0.034130000
     0.829630017         0.164810002         0.113640003
     0.719749987         0.276540011         0.193159997
     0.943210006         0.054940000         0.272670001
     0.939499974         0.219750002         0.034130000
     0.829630017         0.331479996         0.113640003
     0.719749987         0.109880000         0.193159997
     0.943210006         0.221599996         0.272670001
     0.272839993         0.386420012         0.034130000
     0.162959993         0.498149991         0.113640003
     0.053080000         0.609879971         0.193159997
     0.276540011         0.388269991         0.272670001
     0.272839993         0.553080022         0.034130000
     0.162959993         0.664810002         0.113640003
     0.053080000         0.443210006         0.193159997
     0.276540011         0.554939985         0.272670001
     0.606169999         0.386420012         0.034130000
     0.496289998         0.498149991         0.113640003
     0.386420012         0.609879971         0.193159997
     0.609879971         0.388269991         0.272670001
     0.606169999         0.553080022         0.034130000
     0.496289998         0.664810002         0.113640003
     0.386420012         0.443210006         0.193159997
     0.609879971         0.554939985         0.272670001
     0.939499974         0.386420012         0.034130000
     0.829630017         0.498149991         0.113640003
     0.719749987         0.609879971         0.193159997
     0.943210006         0.388269991         0.272670001
     0.939499974         0.553080022         0.034130000
     0.829630017         0.664810002         0.113640003
     0.719749987         0.443210006         0.193159997
     0.943210006         0.554939985         0.272670001
     0.272839993         0.719749987         0.034130000
     0.162959993         0.831480026         0.113640003
     0.053080000         0.943210006         0.193159997
     0.276540011         0.721599996         0.272670001
     0.272839993         0.886420012         0.034130000
     0.162959993         0.998149991         0.113640003
     0.053080000         0.776539981         0.193159997
     0.276540011         0.888270020         0.272670001
     0.606169999         0.719749987         0.034130000
     0.496289998         0.831480026         0.113640003
     0.386420012         0.943210006         0.193159997
     0.609879971         0.721599996         0.272670001
     0.606169999         0.886420012         0.034130000
     0.496289998         0.998149991         0.113640003
     0.386420012         0.776539981         0.193159997
     0.609879971         0.888270020         0.272670001
     0.939499974         0.719749987         0.034130000
     0.829630017         0.831480026         0.113640003
     0.719749987         0.943210006         0.193159997
     0.943210006         0.721599996         0.272670001
     0.939499974         0.886420012         0.034130000
     0.829630017         0.998149991         0.113640003
     0.719749987         0.776539981         0.193159997
     0.943210006         0.888270020         0.272670001
     0.495829999         0.453539997         0.417160004
     0.495449990         0.374599993         0.417120010
