CONTCAR\(3)                             
   1.00000000000000     
    17.1432991028000004    0.0000000000000000    0.0000000000000000
    -8.5182616025000009   14.7953589042000004    0.0000000000000000
     0.0000000000000000    0.0000000000000000   29.3026008605999984
   Ag   Pd   O 
    90    90     2
Direct
  0.0974229558603591  0.2063191029672203  0.0306501773408220
  0.3218324645993836  0.3248947387771494  0.1108581225781633
  0.2172065123031889  0.1049390270262971  0.1967100282659684
  0.1108427719605082  0.2228963008431027  0.2726398505262492
  0.9976675137659224  0.9988901113337382  0.3591052145449777
  0.1003501647318997  0.0433955246659954  0.0349598664683335
  0.3298170858996346  0.1601046997894731  0.1112686950649652
  0.2188458052229600  0.2735917968630161  0.1914959670797163
  0.1008498448960892  0.0419266114932846  0.2751623341854501
  0.0035975334577083  0.1682387345775503  0.3549621384473484
  0.4335226337091261  0.2303345153252880  0.0349690712960984
  0.6577843025070564  0.3338367948609209  0.1093489203503552
  0.5507612292427240  0.1036743109291569  0.1930773789364653
  0.4404110878264485  0.2265975035973543  0.2763359328257750
  0.3273100925022865  1.0000164289905373  0.3549345282961124
  0.4280346306160754  0.0631498345703466  0.0347770686772867
  0.6643905571469939  0.1700963832634178  0.1167435291683158
  0.5499911601760650  0.2748897557522602  0.1964027540147503
  0.4419093631887732  0.0523039213488215  0.2721173567185433
  0.3247494948661557  0.1620218473950111  0.3536315422984684
  0.7685243707762397  0.2286200740651097  0.0370077602363264
  0.9993943136152377  0.3382645830990667  0.1175203610190722
  0.8987700940797905  0.1160685369778823  0.1925922529160448
  0.7781175275354412  0.2162926533942819  0.2727704680457550
  0.6635834176486929  1.0002938661003224  0.3600192189732916
  0.7742110227343781  0.0635975844546212  0.0394848406290730
  1.0002597688217409  0.1678248253323003  0.1147570369441263
  0.8925345109060356  0.2882612184901240  0.1956171663813461
  0.7796773009578725  0.0544511300538074  0.2756895551668853
  0.6645142410346314  0.1602297795282141  0.3505741675142138
  0.1106702783444095  0.5561306503466785  0.0280387683701325
  0.3297900317465520  0.6653310315165514  0.1066751184023365
  0.2280237436036861  0.4509405806225391  0.1905071753285411
  0.1108952663633651  0.5545140189228317  0.2769555718407186
  1.0038420839825835  0.3317093390534236  0.3539927883916273
  0.0978021680150021  0.3821218054119058  0.0347172687735278
  0.3343233067203094  0.4943533050088222  0.1074064746036038
  0.2222294458758380  0.6119201868129940  0.1930176255113226
  0.1143056882651775  0.3920035201579539  0.2743622162793694
  0.0032984412010061  0.4949122676259309  0.3595251153190517
  0.4321003587472964  0.5605452606765589  0.0300712847034906
  0.6655825434905440  0.6699176774764578  0.1115247127315520
  0.5513051340856705  0.4441855716719354  0.1896574035641404
  0.4443932162586243  0.5550844342547855  0.2761485467658833
  0.3286221029966375  0.3306038625604421  0.3584778489378965
  0.4403018373560083  0.3946141776441760  0.0323742987924140
  0.6658667388095464  0.5104261352717682  0.1101158867017374
  0.5566021333352851  0.6082387898618238  0.1914896841517278
  0.4424170917551133  0.3867890286864912  0.2704246000446545
  0.3382338559821326  0.4921272931899563  0.3549971515138003
  0.7761435950508841  0.5626476314015756  0.0235057636375556
  1.0015717706070997  0.6713953993345574  0.1144193381015051
  0.8940003314966529  0.4498857470056516  0.1901751140445093
  0.7679191755055144  0.5463534516225153  0.2740193409398370
  0.6776164871570149  0.3381458746256607  0.3519831482433942
  0.7733864898514549  0.4001437110467121  0.0348725569970377
  1.0035381111815211  0.5071543467372208  0.1077102107573877
  0.8859556221319188  0.6072406028885686  0.1954849002776503
  0.7699834633611793  0.3856393318680823  0.2680736713216166
  0.6759590110341032  0.4960458010606055  0.3554590747899848
  0.1030374029670593  0.8789652188671585  0.0377011781753925
  0.3277068217752828  0.9936601593091090  0.1152138011439478
  0.2202982450848400  0.7759302442679594  0.1954797770129696
  0.1035291304414932  0.8814769263871861  0.2784021913108220
  0.9966493712747757  0.6719023864590108  0.3564125438352347
  0.1035992704693652  0.7128062207203546  0.0377763310280316
  0.3340552576739866  0.8366073227314175  0.1165487641867324
  0.2179235805613956  0.9356749739662059  0.1905517095737789
  0.1140015169591719  0.7161436544176647  0.2717344682311402
 -0.0069217211289406  0.8324248973586669  0.3548737847722217
  0.4388908032708194  0.8941013561985300  0.0300202102664092
  0.6667244062499635  1.0025187262796289  0.1108488267275766
  0.5526205077186799  0.7727137980126585  0.1909984552501091
  0.4531681598731816  0.8969565090917743  0.2724713688972244
  0.3472930192793353  0.6646182053541050  0.3541362960479808
  0.4385346387490783  0.7346180189244428  0.0242890038463764
  0.6584088131886716  0.8345929783990206  0.1122630546105123
  0.5559608229135256  0.9364999194515277  0.1928780784174533
  0.4447521381144462  0.7159928072545848  0.2724595633939408
  0.3411154217198855  0.8297254311137058  0.3509719623568275
  0.7641183433482149  0.8834185389935660  0.0357891645337131
  1.0000299774260777  1.0012293002836274  0.1199992103813826
  0.8887478276998365  0.7759899306744718  0.1940992121567068
  0.7766308643952229  0.8795409936854048  0.2758938015356483
  0.6695892874092745  0.6622835530903851  0.3493329728785537
  0.7825820773584391  0.7225779240798812  0.0321949009808970
  1.0020380407980993  0.8408437362712686  0.1131583238229410
  0.8835651489563543  0.9340234542924704  0.1953064758135897
  0.7770973352277013  0.7186478967805510  0.2735882558779059
  0.6689403562142414  0.8331123601992647  0.3513102341069476
  0.1601644331349448  0.1549167937278672  0.3538590673916130
  0.1617319895565001 -0.0067424547242401  0.3581537224110078
  0.5014455024783463  0.1689356447450788  0.3503163461132656
  0.4977328846153231  0.0001072260069399  0.3583906692413951
  0.8354743185405733  0.1615805269348475  0.3485388666111086
  0.8304115697464971  0.0018525971378148  0.3527330416039569
  0.1717753498180148  0.5013271953442996  0.3501844342321467
  0.1686313002600061  0.3168473200962647  0.3557281985559570
  0.5075447440220361  0.4979280779633557  0.3537065255868965
  0.4953441707404271  0.3305826309638798  0.3511037761476368
  0.8428112054207166  0.5103571247567520  0.3442735806052298
  0.8401917309973361  0.3287882111391554  0.3469319048771231
  0.1738989421112844  0.8305875651430092  0.3536265337138065
  0.1735187782045621  0.6651085688811765  0.3475522444812180
  0.5040730330071456  0.8395118943856120  0.3461960708855475
  0.5200035067606323  0.6740466787363559  0.3543168683057437
  0.8297457319175878  0.8260972864068192  0.3507851807159982
  0.8345842709150380  0.6671726795726038  0.3474539578392268
  0.2679834445332597  0.0557429515920681  0.0344779435957103
  0.1583154600800179  0.1630648232647678  0.1069456759636560
  0.0660358080392726  0.2805949679066439  0.1914153176782943
  0.2698836302806422  0.0491198902332482  0.2742959885478355
  0.2635476928521928  0.2162498985309668  0.0336710719304344
  0.1690841869021323  0.3332508274219090  0.1091384666226263
  0.0544137401278737  0.1116413564476507  0.1934759139467079
  0.2683701551169166  0.2192247311858730  0.2725469480055512
  0.6026627633666387  0.0607023018767565  0.0377325420069424
  0.4940722110206062  0.1586235692247497  0.1157267077069460
  0.3839583179477343  0.2741233105501821  0.1920787396229270
  0.6148485832451581  0.0524428369481375  0.2775540839689895
  0.5972644058980420  0.2170515570129055  0.0331528603324219
  0.4954824066739761  0.3355355536133621  0.1147518635297059
  0.3841515717682942  0.1088134666128909  0.1938604679196701
  0.6168796163696340  0.2197367107063545  0.2729672258844669
  0.9276032981322717  0.0481337926719544  0.0351633887430970
  0.8290368635289680  0.1701663532389831  0.1163195449211648
  0.7176958738300530  0.2804030309700098  0.1902257464750265
  0.9430912579856450  0.0525701808563487  0.2775212476051706
  0.9324652977791490  0.2277717859239663  0.0379193277923521
  0.8323546136764759  0.3452777910113971  0.1123232439154574
  0.7155761994774381  0.0961498919783338  0.1931518487585124
  0.9529908167338436  0.2288055334098690  0.2716904308864364
  0.2662253983913239  0.3817372873198639  0.0337240159156591
  0.1652750099957272  0.5002894338000120  0.1058538432124681
  0.0575263372757606  0.6023652544491775  0.1951355559478156
  0.2769875641389283  0.3916240753400502  0.2743092536713919
  0.2696180131397353  0.5623900384861468  0.0289824783093552
  0.1662060268480637  0.6626615715261075  0.1184285855818570
  0.0581767490961396  0.4374857661136378  0.1991715156917603
  0.2784255795911226  0.5578480819920399  0.2723801040552347
  0.6001038367682712  0.3822828722143771  0.0348235318194773
  0.5009200652946825  0.5089512771342556  0.1105841404009481
  0.3897231949339433  0.6010572036990290  0.1890506528771602
  0.6047584099785458  0.3849176314231753  0.2723429316651965
  0.6060179956172388  0.5561623120782841  0.0336240654094311
  0.4930301495681415  0.6704393706825917  0.1138204640478857
  0.3852715509254943  0.4380062447368184  0.1872075201722613
  0.6041464098283424  0.5433553631454968  0.2741198716296380
  0.9366641131415512  0.3923528236159032  0.0361845065319203
  0.8290435915445628  0.5103882565616825  0.1082928070360528
  0.7270824509843551  0.6078489481810178  0.1898453294848968
  0.9406276747902249  0.3976656666371841  0.2724447387242611
  0.9393411657573025  0.5562736949212038  0.0325649542725737
  0.8436608396859431  0.6796290156433846  0.1134476630235238
  0.7159699159951242  0.4394079810970540  0.1872911551928841
  0.9437190578167947  0.5632987844082928  0.2706577170515931
  0.2730108753086880  0.7308246819852555  0.0367844500042828
  0.1714193839080049  0.8252544234184843  0.1177114802691865
  0.0564302278408144  0.9319233653380913  0.1959258374643629
  0.2832743968207448  0.7253353783796073  0.2706983172445489
  0.2754321079844388  0.8898338471787727  0.0393458832718232
  0.1636672375833496  0.9981445204025043  0.1154631699473660
  0.0527468780733236  0.7724660370983545  0.1947763208942617
  0.2740851906709339  0.8825875914274742  0.2747325076503986
  0.5985567120152190  0.7269277272157816  0.0392455720565055
  0.4985748386164885  0.8397995840097799  0.1120963897563143
  0.3836049049053399  0.9381262104466039  0.1929731655881639
  0.6191672180247438  0.7171370162203053  0.2728507719023683
  0.6018891735057059  0.8961264359357105  0.0326713903031069
  0.4988245603389042  1.0033109588765807  0.1126131379963883
  0.3866560729955812  0.7653671854962849  0.1914402719385622
  0.6196702816356953  0.8883476950308750  0.2683769237759376
  0.9333112572529163  0.7192969894458336  0.0289104479955460
  0.8333599899697330  0.8339953693496570  0.1148342900809720
  0.7242535170807692  0.9397047618413389  0.1928135858700935
  0.9446385386637383  0.7209274432197623  0.2735448073933326
  0.9412485897532582  0.8907110378512257  0.0386506589510746
  0.8319169661814290  1.0034216556664908  0.1165790153495243
  0.7198243068546143  0.7736556104762038  0.1931205912150218
  0.9417093807570115  0.8888950193262718  0.2782871505437923
  0.4827443092369670  0.4393848145151560  0.4177093296063046
  0.4687015784334867  0.3572603670096173  0.4149558265727564
 
 -0.75091483E-03 -0.28672639E-03  0.15707166E-02
  0.90125326E-03 -0.99384307E-03  0.26937101E-02
  0.29020624E-02  0.10320585E-02  0.17823596E-02
  0.49928403E-03 -0.25012300E-02 -0.17948079E-02
  0.52531586E-03 -0.14115084E-02  0.14192314E-02
 -0.66024062E-03  0.32260847E-02  0.13736757E-02
  0.12612633E-02 -0.11911503E-02  0.16478522E-02
 -0.17252181E-02  0.10337536E-02  0.35039661E-03
  0.18192331E-02 -0.51758569E-03 -0.11322823E-02
 -0.11447042E-02  0.38419899E-03 -0.11194121E-02
 -0.21406536E-03 -0.11792912E-02  0.98974791E-03
 -0.55932861E-03 -0.40357901E-04  0.21128674E-02
 -0.59903710E-03 -0.40028301E-03 -0.14745197E-02
 -0.10816769E-02 -0.74864436E-03 -0.21513011E-03
  0.15334646E-02 -0.82179330E-04 -0.78119496E-03
  0.35859702E-03  0.22925999E-03 -0.15497718E-02
  0.13089186E-02  0.20954895E-02  0.11580930E-02
 -0.89075314E-03  0.11720388E-02  0.16346804E-02
  0.74607253E-03 -0.75337380E-03 -0.18485921E-02
 -0.43064362E-03 -0.50046500E-03 -0.19552498E-02
 -0.31603999E-02 -0.83126590E-04  0.26727724E-02
  0.30501096E-02 -0.46311639E-03 -0.74926193E-03
  0.24816881E-02  0.29524442E-02 -0.14344007E-02
  0.77429890E-03 -0.20920785E-02 -0.40649627E-02
 -0.88355690E-03 -0.30282001E-02 -0.15987566E-02
 -0.62573218E-03 -0.12495194E-02 -0.52119774E-03
 -0.20892687E-02  0.10618592E-03  0.20951490E-02
  0.15103166E-02  0.32911460E-02 -0.49566718E-02
 -0.14765009E-02  0.16646013E-02 -0.17509995E-02
 -0.12566193E-02  0.10930587E-02  0.75733940E-03
 -0.87790127E-03  0.17143555E-02 -0.22704692E-02
 -0.24820857E-03  0.37932396E-02  0.96929193E-03
  0.25086425E-03  0.27080853E-02  0.16763717E-02
 -0.28860233E-02 -0.11966917E-02 -0.10869841E-02
 -0.14064133E-03  0.14485636E-02 -0.16613335E-03
 -0.83179319E-03 -0.18794654E-02  0.54643151E-03
  0.19634065E-02 -0.23277440E-02 -0.13883183E-02
 -0.32565009E-02 -0.56087947E-03 -0.22322674E-02
  0.40882341E-02 -0.12313802E-02  0.20019885E-02
  0.13926972E-02 -0.24412704E-02  0.19415226E-02
 -0.10216019E-02  0.14617107E-02 -0.19830302E-02
  0.20573050E-02  0.78594186E-04 -0.10752678E-02
 -0.12893126E-02  0.55229257E-03 -0.22635686E-02
 -0.10789715E-02  0.14698408E-03  0.65526745E-03
  0.56130254E-04 -0.19027780E-03 -0.24424317E-03
  0.10427975E-02  0.99254347E-03  0.25164179E-02
  0.70921616E-03 -0.46772128E-04  0.18254170E-02
 -0.40265796E-02 -0.16869924E-02  0.22918911E-02
 -0.64977178E-03 -0.11561116E-02  0.44077674E-03
 -0.17717026E-04 -0.21075170E-02 -0.19331875E-03
 -0.19588833E-02 -0.21589592E-02  0.36184536E-03
  0.67603632E-03 -0.60254796E-03 -0.11951137E-02
  0.80104096E-03 -0.23178954E-02 -0.71497045E-03
  0.29483259E-02 -0.16966023E-02 -0.15945470E-03
 -0.25534023E-02  0.18528022E-02  0.12062034E-02
  0.56911967E-04 -0.73906605E-03  0.14814439E-02
  0.27421065E-02 -0.11764084E-02  0.22408673E-02
 -0.13152366E-02  0.11095943E-02  0.18408776E-02
 -0.91538809E-03  0.23772709E-02 -0.21681270E-02
 -0.13303382E-02  0.19886996E-02 -0.77119402E-03
  0.92353773E-03 -0.87257485E-03 -0.39718532E-03
  0.75820020E-03 -0.13820992E-03  0.41911516E-03
  0.36587574E-03 -0.13602755E-02 -0.12549561E-02
 -0.35115319E-03  0.41933442E-03 -0.10022887E-03
 -0.87518358E-03 -0.16113551E-02  0.13464594E-02
 -0.12984366E-03  0.48039001E-03  0.15825463E-02
 -0.22738681E-02 -0.18107411E-03  0.13894046E-02
 -0.85702775E-03 -0.91343334E-03 -0.14593873E-02
  0.15933721E-02 -0.21119968E-03 -0.19037963E-02
  0.84178667E-04  0.22384116E-02  0.90654169E-04
  0.64125275E-03  0.90228750E-03 -0.27098871E-03
 -0.12836572E-02 -0.12115516E-02  0.11753380E-02
  0.30570462E-03  0.17467469E-02  0.16045860E-02
  0.23183788E-02 -0.10228355E-02 -0.22391797E-02
 -0.19952762E-03  0.84134443E-03  0.26511284E-03
 -0.19850429E-03 -0.24059802E-03  0.10766876E-02
 -0.89228148E-03  0.11431144E-03  0.19938708E-02
  0.24737586E-02 -0.41365525E-02  0.96854788E-03
 -0.25705338E-02 -0.28639698E-03 -0.19517886E-02
 -0.14881008E-02 -0.33129882E-03 -0.19865219E-02
 -0.23101690E-03  0.74181289E-03  0.91672602E-03
 -0.16785496E-02 -0.12862327E-02  0.50460112E-03
  0.80927496E-03  0.15936115E-02  0.79016286E-03
 -0.10393330E-02  0.60587988E-05  0.63911589E-03
  0.11652557E-02 -0.32456725E-02 -0.15435161E-02
 -0.10731359E-02  0.13587173E-02  0.17515003E-02
  0.19093318E-02 -0.24094113E-02 -0.56999805E-03
 -0.10157900E-02 -0.45672962E-03 -0.53296862E-03
  0.72827304E-04  0.24392738E-02 -0.25994390E-02
  0.19389753E-02  0.85259956E-03  0.18224789E-02
 -0.24858122E-02 -0.31933047E-02  0.50779021E-03
  0.19254479E-02 -0.15293303E-02 -0.94403410E-03
  0.26825143E-02  0.40402243E-03  0.56492478E-03
  0.22900563E-02  0.15792683E-02 -0.69818211E-03
  0.10419495E-02  0.19957545E-02  0.26497332E-03
 -0.28682561E-02 -0.39959933E-03 -0.17251898E-03
  0.12430648E-02 -0.36146028E-03  0.67917372E-03
 -0.64007585E-03  0.26785693E-02 -0.33230984E-03
  0.13256177E-02  0.38697888E-03 -0.21221138E-02
 -0.33494237E-03 -0.41513089E-03 -0.10690758E-03
  0.43729236E-03  0.94762612E-03  0.17122838E-02
 -0.15860334E-02  0.79523325E-03 -0.40877582E-03
 -0.46333489E-03  0.39520936E-02  0.37570928E-03
 -0.14785414E-02 -0.62935672E-03  0.29418604E-03
  0.17831059E-02  0.11297529E-02  0.32328244E-02
 -0.13782073E-02 -0.20279918E-02 -0.10730663E-02
 -0.94847793E-04 -0.23872335E-02 -0.98804529E-03
  0.23562503E-02  0.23178883E-02  0.33063024E-02
 -0.10789851E-02 -0.35165725E-02  0.60699876E-04
  0.36205382E-03 -0.47709594E-03  0.21112972E-02
  0.19177570E-02 -0.78586073E-03 -0.87596107E-03
 -0.11070193E-02  0.11058485E-02 -0.10885819E-02
 -0.15456946E-02 -0.26289693E-02 -0.12443190E-02
  0.26512036E-03  0.13489159E-02 -0.10977281E-02
  0.93286783E-04 -0.10584712E-02 -0.21510355E-02
 -0.23117740E-02 -0.10072386E-02 -0.35236813E-03
 -0.33011137E-04 -0.42651469E-03  0.18243560E-02
  0.22971010E-02  0.73936345E-03  0.14387819E-02
 -0.30605699E-02 -0.36438941E-04  0.68683107E-03
  0.25647696E-02  0.20364917E-03 -0.21241225E-02
  0.25008746E-03  0.52841963E-03  0.11714895E-02
 -0.42138103E-03 -0.45594262E-03 -0.28872832E-02
  0.48877637E-03 -0.26650553E-03  0.10194767E-03
 -0.18219559E-02  0.71566833E-03  0.29440834E-03
  0.11213498E-02 -0.74398867E-03 -0.28935691E-02
 -0.10886457E-02  0.13016109E-02  0.16697369E-03
  0.16331053E-02  0.11584133E-02  0.57348985E-03
  0.13009851E-02  0.92477766E-03  0.20269556E-02
  0.18883848E-03 -0.97660561E-03 -0.10473051E-03
 -0.42263225E-02  0.39104175E-03  0.32740527E-03
 -0.13893207E-02  0.25496814E-02  0.32044821E-03
 -0.27523386E-03 -0.17049520E-02 -0.13439760E-02
 -0.24279203E-03  0.77844918E-04 -0.13853884E-02
 -0.31119383E-03 -0.21372787E-02  0.17278427E-02
 -0.63333621E-03 -0.79663794E-03  0.11936168E-02
  0.18272022E-02 -0.10904511E-02  0.10121811E-02
 -0.32854453E-02  0.25458869E-03 -0.49962841E-03
  0.19049809E-03 -0.78140167E-04  0.70740585E-03
 -0.23089327E-02 -0.96201199E-03 -0.25774225E-02
  0.50162774E-02  0.26082409E-02 -0.17767611E-02
  0.34105356E-03 -0.19426813E-02 -0.23110430E-02
 -0.68264515E-04 -0.19486750E-03  0.12307248E-02
 -0.21652623E-02  0.14456504E-02  0.40189207E-02
  0.55913278E-03  0.48030930E-03 -0.23995442E-03
  0.30279415E-02  0.21402011E-04 -0.28231308E-02
  0.72331745E-03  0.18500188E-02  0.41653860E-03
 -0.70247410E-03 -0.19752777E-02  0.34428777E-03
  0.21836167E-02 -0.20347186E-02  0.48504037E-03
  0.93808739E-03 -0.93995789E-03  0.14270575E-02
  0.86196343E-03  0.14080044E-02  0.76824395E-03
  0.46304961E-03 -0.18531117E-03 -0.19529203E-02
  0.14371859E-02 -0.15138348E-02 -0.10029465E-02
 -0.55726476E-03 -0.51946909E-03  0.25283753E-03
 -0.63748288E-03 -0.12061327E-02  0.35246061E-03
  0.26445272E-03  0.24580759E-02  0.29378697E-02
  0.88240178E-03  0.59148086E-03  0.15154442E-02
 -0.86093472E-04  0.47120675E-03  0.34140893E-02
 -0.62103830E-03  0.72535741E-03 -0.25568930E-02
  0.19247254E-02  0.94002761E-03 -0.18346876E-02
 -0.11523533E-02 -0.10262462E-02  0.18851195E-02
 -0.38496888E-02  0.38585272E-03 -0.75606552E-03
  0.10070955E-02  0.82261709E-04  0.18576014E-02
 -0.22966469E-02  0.36665067E-04  0.11119981E-03
  0.24689877E-03  0.30466662E-03 -0.63086625E-03
  0.82290035E-03  0.11497848E-02 -0.77879971E-03
  0.41619310E-04  0.28943903E-02  0.15888150E-02
 -0.97764584E-04 -0.19476111E-02  0.18843582E-03
 -0.24161902E-02  0.16195091E-02 -0.87001317E-03
 -0.13796637E-02  0.18079741E-02 -0.17373136E-02
 -0.17029688E-02 -0.38772348E-03 -0.20806230E-03
  0.38819109E-03 -0.67196408E-03  0.83255465E-03
  0.11933727E-02  0.51939296E-03 -0.18247559E-02
  0.15316344E-02 -0.11875549E-02  0.75964281E-03
  0.22893204E-02  0.21066492E-02  0.90185703E-03
 -0.16179282E-02 -0.86046438E-03  0.15522123E-02
  0.38534971E-02  0.34936711E-02  0.39903527E-03
 -0.10863218E-02 -0.10294587E-02  0.39729253E-03
 -0.42368018E-03  0.19728510E-02 -0.27783348E-02
  0.75353555E-03 -0.25089358E-02 -0.23839377E-02
  0.13241336E-02  0.15613918E-02 -0.89204582E-03
  0.14878263E-02  0.42869336E-02  0.33732870E-02
 -0.13746232E-02 -0.51884700E-04 -0.62068424E-02
 
           1
   2.00000000000000     
 -0.51118238E+00 -0.23663695E-03 -0.30298722E-03 -0.51091257E+00
  0.97316093E-01  0.20628034E+00  0.30757384E-01
  0.32187085E+00  0.32476039E+00  0.11104198E+00
  0.21761440E+00  0.10507854E+00  0.19683168E+00
  0.11073302E+00  0.22255819E+00  0.27251735E+00
  0.99763399E+00  0.99869931E+00  0.35920208E+00
  0.10048983E+00  0.43831619E-01  0.35053624E-01
  0.32988422E+00  0.15994368E+00  0.11138117E+00
  0.21871397E+00  0.27373154E+00  0.19151988E+00
  0.10102732E+00  0.41856646E-01  0.27508505E+00
  0.34897939E-02  0.16829067E+00  0.35488573E+00
  0.43341845E+00  0.23017510E+00  0.35036625E-01
  0.65771634E+00  0.33383134E+00  0.10949313E+00
  0.55066446E+00  0.10362020E+00  0.19297674E+00
  0.44023461E+00  0.22649630E+00  0.27632125E+00
  0.32748347E+00  0.53201921E-05  0.35488121E+00
  0.42809186E+00  0.63180825E-01  0.34671292E-01
  0.66468401E+00  0.17037965E+00  0.11682257E+00
  0.54996596E+00  0.27504819E+00  0.19651433E+00
  0.44194580E+00  0.52202082E-01  0.27199118E+00
  0.32466564E+00  0.16195420E+00  0.35349809E+00
  0.76815008E+00  0.22860884E+00  0.37190186E-01
  0.99971904E+00  0.33820198E+00  0.11746922E+00
  0.89925793E+00  0.11646764E+00  0.19249435E+00
  0.77806734E+00  0.21600985E+00  0.27249302E+00
  0.66327694E+00  0.99988452E+00  0.35991010E+00
  0.77405410E+00  0.63428678E-01  0.39449267E-01
  0.23159363E-04  0.16783918E+00  0.11490004E+00
  0.89293177E+00  0.28870611E+00  0.19527886E+00
  0.77961685E+00  0.54676147E-01  0.27557004E+00
  0.66444106E+00  0.16037754E+00  0.35062586E+00
  0.11068301E+00  0.55636239E+00  0.27883801E-01
  0.33001586E+00  0.66584379E+00  0.10674128E+00
  0.22823491E+00  0.45130665E+00  0.19062159E+00
  0.11047819E+00  0.55435225E+00  0.27688138E+00
  0.39229731E-02  0.33190515E+00  0.35398145E+00
  0.97578888E-01  0.38186774E+00  0.34754565E-01
  0.33439602E+00  0.49403865E+00  0.10731172E+00
  0.22181186E+00  0.61184437E+00  0.19286527E+00
  0.11469993E+00  0.39183707E+00  0.27449886E+00
  0.32969436E-02  0.49458226E+00  0.35965763E+00
  0.43207935E+00  0.56074285E+00  0.29935936E-01
  0.66582784E+00  0.66992830E+00  0.11145132E+00
  0.55119181E+00  0.44426023E+00  0.18950291E+00
  0.44427721E+00  0.55510430E+00  0.27619327E+00
  0.32861587E+00  0.33057814E+00  0.35846118E+00
  0.44049016E+00  0.39474835E+00  0.32546053E-01
  0.66594634E+00  0.51041981E+00  0.11024048E+00
  0.55601907E+00  0.60801075E+00  0.19164611E+00
  0.44226363E+00  0.38663275E+00  0.27045468E+00
  0.33809023E+00  0.49184240E+00  0.35498396E+00
  0.77577005E+00  0.56235579E+00  0.23530461E-01
  0.16101677E-02  0.67131395E+00  0.11433777E+00
  0.89393810E+00  0.44957242E+00  0.19012631E+00
  0.76814918E+00  0.54612411E+00  0.27400846E+00
  0.67744305E+00  0.33839633E+00  0.35206548E+00
  0.77334349E+00  0.40004381E+00  0.34973670E-01
  0.37789986E-02  0.50699532E+00  0.10786316E+00
  0.88587671E+00  0.60739060E+00  0.19561055E+00
  0.77003635E+00  0.38596069E+00  0.26792569E+00
  0.67593739E+00  0.49631463E+00  0.35540644E+00
  0.10308654E+00  0.87884727E+00  0.37674069E-01
  0.32778599E+00  0.99364148E+00  0.11524241E+00
  0.22024956E+00  0.77574637E+00  0.19539412E+00
  0.10351633E+00  0.88153361E+00  0.27839535E+00
  0.99643904E+00  0.67168457E+00  0.35650444E+00
  0.10361639E+00  0.71287116E+00  0.37884345E-01
  0.33377782E+00  0.83658285E+00  0.11664360E+00
  0.21776224E+00  0.93555150E+00  0.19045210E+00
  0.11417322E+00  0.71611510E+00  0.27160453E+00
  0.99323845E+00  0.83272748E+00  0.35487997E+00
  0.43902622E+00  0.89422333E+00  0.30001714E-01
  0.66649327E+00  0.23549517E-02  0.11092905E+00
  0.55277350E+00  0.77294992E+00  0.19110797E+00
  0.45336993E+00  0.89681824E+00  0.27231854E+00
  0.34732625E+00  0.66473194E+00  0.35415439E+00
  0.43849532E+00  0.73458550E+00  0.24362491E-01
  0.65831239E+00  0.83460843E+00  0.11239914E+00
  0.55597158E+00  0.93594075E+00  0.19294419E+00
  0.44443301E+00  0.71595409E+00  0.27232635E+00
  0.34091956E+00  0.82968065E+00  0.35083638E+00
  0.76414122E+00  0.88351882E+00  0.35851734E-01
  0.99974776E+00  0.10554305E-02  0.12003365E+00
  0.88894928E+00  0.77620535E+00  0.19415314E+00
  0.77651002E+00  0.87954181E+00  0.27593742E+00
  0.66950723E+00  0.66184481E+00  0.34922762E+00
  0.78254814E+00  0.72276159E+00  0.32314447E-01
  0.20989556E-02  0.84051804E+00  0.11311942E+00
  0.88341597E+00  0.93396171E+00  0.19527010E+00
  0.77726967E+00  0.71897763E+00  0.27341084E+00
  0.66922383E+00  0.83322761E+00  0.35143462E+00
  0.15965994E+00  0.15448513E+00  0.35389373E+00
  0.16185390E+00  0.99305081E+00  0.35808929E+00
  0.50178559E+00  0.16899026E+00  0.35035490E+00
  0.49810613E+00  0.32070758E-03  0.35834302E+00
  0.83572993E+00  0.16185031E+00  0.34855695E+00
  0.83005011E+00  0.17985803E-02  0.35272127E+00
  0.17189609E+00  0.50127833E+00  0.35023079E+00
  0.16873654E+00  0.31720940E+00  0.35570552E+00
  0.50772539E+00  0.49798039E+00  0.35356168E+00
  0.49527721E+00  0.33052651E+00  0.35109648E+00
  0.84292587E+00  0.51048522E+00  0.34439045E+00
  0.84006011E+00  0.32889571E+00  0.34690400E+00
  0.17411034E+00  0.83112180E+00  0.35365218E+00
  0.17330401E+00  0.66502349E+00  0.34757232E+00
  0.50435694E+00  0.83966461E+00  0.34641672E+00
  0.51970650E+00  0.67377254E+00  0.35424363E+00
  0.82957432E+00  0.82577459E+00  0.35071774E+00
  0.83501485E+00  0.66748601E+00  0.34767962E+00
  0.26762137E+00  0.55267590E-01  0.34482087E-01
  0.15832565E+00  0.16300033E+00  0.10708978E+00
  0.66206756E-01  0.28048874E+00  0.19135553E+00
  0.26982876E+00  0.49269376E-01  0.27422169E+00
  0.26319078E+00  0.21589452E+00  0.33586143E-01
  0.16920572E+00  0.33343317E+00  0.10906354E+00
  0.54353528E-01  0.11149827E+00  0.19332910E+00
  0.26803280E+00  0.21908858E+00  0.27252290E+00
  0.60263026E+00  0.60644647E-01  0.37857060E-01
  0.49438986E+00  0.15872351E+00  0.11582491E+00
  0.38359881E+00  0.27411838E+00  0.19212562E+00
  0.61516148E+00  0.52470366E-01  0.27740911E+00
  0.59732907E+00  0.21712299E+00  0.33232818E-01
  0.49540262E+00  0.33547392E+00  0.11455480E+00
  0.38419069E+00  0.10877744E+00  0.19386743E+00
  0.61671513E+00  0.21983345E+00  0.27298732E+00
  0.92768415E+00  0.48033222E-01  0.34965893E-01
  0.82899728E+00  0.17034230E+00  0.11633094E+00
  0.71796421E+00  0.28055962E+00  0.19026489E+00
  0.94330515E+00  0.52695190E-01  0.27765959E+00
  0.93242173E+00  0.22763977E+00  0.37912180E-01
  0.83188782E+00  0.34533065E+00  0.11234559E+00
  0.71558537E+00  0.96494552E-01  0.19317372E+00
  0.95284419E+00  0.22857506E+00  0.27159870E+00
  0.26620230E+00  0.38174781E+00  0.33629459E-01
  0.16509515E+00  0.50000052E+00  0.10597177E+00
  0.57398942E-01  0.60225757E+00  0.19521702E+00
  0.27712749E+00  0.39147667E+00  0.27437834E+00
  0.26925182E+00  0.56242445E+00  0.28948377E-01
  0.16622300E+00  0.66265101E+00  0.11847687E+00
  0.57842764E-01  0.43735572E+00  0.19899560E+00
  0.27918599E+00  0.55820066E+00  0.27225883E+00
  0.60001314E+00  0.38202027E+00  0.34665795E-01
  0.50089901E+00  0.50892494E+00  0.11066814E+00
  0.38956769E+00  0.60125262E+00  0.18932496E+00
  0.60485590E+00  0.38498256E+00  0.27232655E+00
  0.60637268E+00  0.55616521E+00  0.33431377E-01
  0.49323880E+00  0.67068945E+00  0.11384889E+00
  0.38505692E+00  0.43773923E+00  0.18723102E+00
  0.60426449E+00  0.54308031E+00  0.27415298E+00
  0.93671042E+00  0.39222576E+00  0.36281908E-01
  0.82923872E+00  0.51057859E+00  0.10834524E+00
  0.72712403E+00  0.60782390E+00  0.18971204E+00
  0.94069366E+00  0.39746103E+00  0.27237628E+00
  0.93924126E+00  0.55620347E+00  0.32582211E-01
  0.84350546E+00  0.67946597E+00  0.11347172E+00
  0.71616587E+00  0.43974026E+00  0.18749167E+00
  0.94386173E+00  0.56337874E+00  0.27076115E+00
  0.27303248E+00  0.73088838E+00  0.37017473E-01
  0.17139565E+00  0.82535248E+00  0.11753696E+00
  0.56717913E-01  0.93205044E+00  0.19580061E+00
  0.28307103E+00  0.72519665E+00  0.27082698E+00
  0.27500891E+00  0.88988601E+00  0.39294279E-01
  0.16379025E+00  0.99815564E+00  0.11558996E+00
  0.52481406E-01  0.77247099E+00  0.19478391E+00
  0.27413446E+00  0.88262878E+00  0.27468945E+00
  0.59872994E+00  0.72708315E+00  0.39192416E-01
  0.49877410E+00  0.84019084E+00  0.11220483E+00
  0.38346268E+00  0.93786294E+00  0.19298603E+00
  0.61899412E+00  0.71735594E+00  0.27279139E+00
  0.60184965E+00  0.89637083E+00  0.32552813E-01
  0.49859984E+00  0.32585474E-02  0.11259894E+00
  0.38665623E+00  0.76527635E+00  0.19149710E+00
  0.61984439E+00  0.88841791E+00  0.26825238E+00
  0.93341018E+00  0.71913646E+00  0.28962296E-01
  0.83376857E+00  0.83428014E+00  0.11489584E+00
  0.72400697E+00  0.93958845E+00  0.19291953E+00
  0.94532276E+00  0.72139971E+00  0.27357204E+00
  0.94105271E+00  0.89057188E+00  0.38677775E-01
  0.83200005E+00  0.36883408E-02  0.11638938E+00
  0.71974370E+00  0.77331646E+00  0.19295788E+00
  0.94196873E+00  0.88910608E+00  0.27822627E+00
  0.48320583E+00  0.43996431E+00  0.41793957E+00
  0.46853772E+00  0.35725335E+00  0.41453219E+00
  0.00000000E+00  0.00000000E+00  0.00000000E+00
  0.00000000E+00  0.00000000E+00  0.00000000E+00
  0.00000000E+00  0.00000000E+00  0.00000000E+00
  0.00000000E+00  0.00000000E+00  0.00000000E+00
  0.00000000E+00  0.00000000E+00  0.00000000E+00
  0.00000000E+00  0.00000000E+00  0.00000000E+00
  0.00000000E+00  0.00000000E+00  0.00000000E+00
  0.00000000E+00  0.00000000E+00  0.00000000E+00
  0.00000000E+00  0.00000000E+00  0.00000000E+00
  0.00000000E+00  0.00000000E+00  0.00000000E+00
  0.00000000E+00  0.00000000E+00  0.00000000E+00
  0.00000000E+00  0.00000000E+00  0.00000000E+00
  0.00000000E+00  0.00000000E+00  0.00000000E+00